%Chk=/home/ls/projects/PFAS_mito_membrane_pilot/qm/PFBS/phase3_torsion_20260924/phase3_torsion_20run_20260925_v8/T_CC_330/T_CC_330.chk
%NProcShared=8
%Mem=24GB
#P MP2/6-31+G(d) Opt=(Tight,ModRedundant,MaxCycles=200) IOp(1/152=200) SCF=Tight NoSymm

PFBS_ani T_CC_330 alternate O-triad +30.000 deg about directed C2->S1; NOT SUBMITTED

-1 1
S -1.7100931555 -1.3012891820  0.0846793569
F -0.4114461799  1.8946117712 -1.0224167803
F  0.6197603718  1.9030961332  0.9267991218
F -0.8576240685  0.3526255600  2.0020461469
F -2.1988769308  1.2762813839  0.5071262217
F  0.7841864831 -0.3805389614 -1.7480710689
F  2.1332732760  1.2095635708 -1.0393354488
F  1.2723790062 -1.7849210804  0.5977137453
F  3.0613205218 -1.1566160715 -0.4726166233
F  2.4580202382 -0.1080781951  1.3488697600
O -1.0308526919 -2.1853514825  1.0617106994
O -3.1789298525 -1.1922154487  0.2248532997
O -1.1849879396 -1.3468094288 -1.2997139173
C  0.0395680856  1.0911289971 -0.0227209475
C -1.1599343060  0.3946115631  0.6608036265
C  1.2046440458  0.2731529814 -0.6450266101
C  1.9907496531 -0.7238767480  0.2406475468

D 16 14 15 1 F

