%Chk=/home/ls/projects/PFAS_mito_membrane_pilot/qm/PFBS/phase3_torsion_20260924/phase3_torsion_20run_20260925_v8/T_CC_270/T_CC_270.chk
%NProcShared=8
%Mem=24GB
#P MP2/6-31+G(d) Opt=(Tight,ModRedundant,MaxCycles=200) IOp(1/152=200) SCF=Tight NoSymm

PFBS_ani Phase3 T_CC_270; independent GEO_A seed; not run

-1 1
S -2.6719817473 -0.0665020181 -0.3450592226
F -0.4114461799  1.8946117712 -1.0224167803
F  0.6197603718  1.9030961332  0.9267991218
F -0.6479808539 -0.7280996395  1.2686761634
F -1.5340435480  1.2596346235  1.6568646564
F  0.7841864831 -0.3805389614 -1.7480710689
F  2.1332732760  1.2095635708 -1.0393354488
F  1.2723790062 -1.7849210804  0.5977137453
F  3.0613205218 -1.1566160715 -0.4726166233
F  2.4580202382 -0.1080781951  1.3488697600
O -2.1295684844 -1.1184996433 -1.2375909315
O -3.5939632828 -0.5311388265  0.7147000616
O -3.0169572095  1.2177864982 -0.9977055707
C  0.0395680856  1.0911289971 -0.0227209475
C -1.1599343060  0.3946115631  0.6608036265
C  1.2046440458  0.2731529814 -0.6450266101
C  1.9907496531 -0.7238767480  0.2406475468

D 16 14 15 1 F

