%Chk=GEO_B_FREQ_PROPOSED.chk
%NProcShared=8
%Mem=48GB
#P MP2/6-31+G(d) Freq SCF=Tight NoSymm

PFBS_ani accepted revised GEO_B frequency PROPOSED NOT RUN

-1 1
S -2.727715142 1.2685828349 0.8452076886
F -0.4455593226 1.7094129131 -1.2318561762
F 0.5471803554 2.0204603278 0.7213431895
F -1.3621855627 -0.8147234357 -0.1186932983
F -0.6099696796 -0.0476211947 1.8152392628
F 0.8410713869 -0.5456064328 -1.6702493732
F 2.1616619667 1.1204861058 -1.0829026729
F 1.2204576413 -1.7458422504 0.7204933988
F 3.0874361103 -1.15486052 -0.2320360913
F 2.338225931 -0.0186311534 1.4765877306
O -3.2671403458 1.3506715835 -0.5310408426
O -3.4432649229 0.3561934352 1.7660264891
O -2.2474265684 2.5426688766 1.4311369499
C 0.0224378971 1.084575183 -0.1170936648
C -1.118707783 0.3328009213 0.5961803967
C 1.2251417668 0.2325792819 -0.6228572322
C 1.9665773188 -0.6883103203 0.371866868

