%Chk=/home/ls/projects/PFAS_mito_membrane_pilot/qm/PFBS/phase3_torsion_20260924/phase3_torsion_20run_20260925_v8/T_CC_120/T_CC_120.chk
%NProcShared=8
%Mem=24GB
#P MP2/6-31+G(d) Opt=(Tight,ModRedundant,MaxCycles=200) IOp(1/152=200) SCF=Tight NoSymm

PFBS_ani Phase3 T_CC_120; independent GEO_A seed; not run

-1 1
S -1.5337410327  0.7315482892  2.4656347667
F -0.4114461799  1.8946117712 -1.0224167803
F  0.6197603718  1.9030961332  0.9267991218
F -2.2606348104  0.7008866814 -0.1051857691
F -0.9138169034 -0.9446557917  0.4990959524
F  0.7841864831 -0.3805389614 -1.7480710689
F  2.1332732760  1.2095635708 -1.0393354488
F  1.2723790062 -1.7849210804  0.5977137453
F  3.0613205218 -1.1566160715 -0.4726166233
F  2.4580202382 -0.1080781951  1.3488697600
O -1.9427930477  2.1558696581  2.4267877640
O -2.6155345773 -0.2440963061  2.7242220954
O -0.2305376548  0.4524803354  3.1122678553
C  0.0395680856  1.0911289971 -0.0227209475
C -1.1599343060  0.3946115631  0.6608036265
C  1.2046440458  0.2731529814 -0.6450266101
C  1.9907496531 -0.7238767480  0.2406475468

D 16 14 15 1 F

