%Chk=PFBS_FREQ_GEO_A.chk
%NProcShared=8
%Mem=48GB
#P MP2/6-31+G(d) Freq SCF=Tight NoSymm

PFBS_ani GEO_A frozen reference harmonic frequency

-1 1
S -2.2232398296 -0.804615756 -0.3097160649
F -0.4114461799 1.8946117712 -1.0224167803
F 0.6197603718 1.9030961332 0.9267991218
F -0.6479001916 -0.2346863932 1.771610068
F -1.9451262051 1.4269320379 1.1059421602
F 0.7841864831 -0.3805389614 -1.7480710689
F 2.133273276 1.2095635708 -1.0393354488
F 1.2723790062 -1.7849210804 0.5977137453
F 3.0613205218 -1.1566160715 -0.4726166233
F 2.4580202382 -0.1080781951 1.34886976
O -1.2750644665 -1.9179277174 -0.5526645366
O -3.3073331198 -1.0795289763 0.6588868029
O -2.5938573832 -0.0024071552 -1.4986047511
C 0.0395680856 1.0911289971 -0.0227209475
C -1.159934306 0.3946115631 0.6608036265
C 1.2046440458 0.2731529814 -0.6450266101
C 1.9907496531 -0.723876748 0.2406475468

