 Entering Gaussian System, Link 0=/opt/g16/g16
 Initial command:
 /opt/g16/l1.exe "/home/ls/projects/PFAS_mito_membrane_pilot/qm/PFBS/raw/scratch_FREQ_GEO_A/Gau-1343111.inp" -scrdir="/home/ls/projects/PFAS_mito_membrane_pilot/qm/PFBS/raw/scratch_FREQ_GEO_A/"
 Entering Link 1 = /opt/g16/l1.exe PID=   1343115.
  
 Copyright (c) 1988-2021, Gaussian, Inc.  All Rights Reserved.
  
 This is part of the Gaussian(R) 16 program.  It is based on
 the Gaussian(R) 09 system (copyright 2009, Gaussian, Inc.),
 the Gaussian(R) 03 system (copyright 2003, Gaussian, Inc.),
 the Gaussian(R) 98 system (copyright 1998, Gaussian, Inc.),
 the Gaussian(R) 94 system (copyright 1995, Gaussian, Inc.),
 the Gaussian 92(TM) system (copyright 1992, Gaussian, Inc.),
 the Gaussian 90(TM) system (copyright 1990, Gaussian, Inc.),
 the Gaussian 88(TM) system (copyright 1988, Gaussian, Inc.),
 the Gaussian 86(TM) system (copyright 1986, Carnegie Mellon
 University), and the Gaussian 82(TM) system (copyright 1983,
 Carnegie Mellon University). Gaussian is a federally registered
 trademark of Gaussian, Inc.
  
 This software contains proprietary and confidential information,
 including trade secrets, belonging to Gaussian, Inc.
  
 This software is provided under written license and may be
 used, copied, transmitted, or stored only in accord with that
 written license.
  
 The following legend is applicable only to US Government
 contracts under FAR:
  
                    RESTRICTED RIGHTS LEGEND
  
 Use, reproduction and disclosure by the US Government is
 subject to restrictions as set forth in subparagraphs (a)
 and (c) of the Commercial Computer Software - Restricted
 Rights clause in FAR 52.227-19.
  
 Gaussian, Inc.
 340 Quinnipiac St., Bldg. 40, Wallingford CT 06492
  
  
 ---------------------------------------------------------------
 Warning -- This program may not be used in any manner that
 competes with the business of Gaussian, Inc. or will provide
 assistance to any competitor of Gaussian, Inc.  The licensee
 of this program is prohibited from giving any competitor of
 Gaussian, Inc. access to this program.  By using this program,
 the user acknowledges that Gaussian, Inc. is engaged in the
 business of creating and licensing software in the field of
 computational chemistry and represents and warrants to the
 licensee that it is not a competitor of Gaussian, Inc. and that
 it will not use this program in any manner prohibited above.
 ---------------------------------------------------------------
  

 Cite this work as:
 Gaussian 16, Revision C.02,
 M. J. Frisch, G. W. Trucks, H. B. Schlegel, G. E. Scuseria, 
 M. A. Robb, J. R. Cheeseman, G. Scalmani, V. Barone, 
 G. A. Petersson, H. Nakatsuji, X. Li, M. Caricato, A. V. Marenich, 
 J. Bloino, B. G. Janesko, R. Gomperts, B. Mennucci, H. P. Hratchian, 
 J. V. Ortiz, A. F. Izmaylov, J. L. Sonnenberg, D. Williams-Young, 
 F. Ding, F. Lipparini, F. Egidi, J. Goings, B. Peng, A. Petrone, 
 T. Henderson, D. Ranasinghe, V. G. Zakrzewski, J. Gao, N. Rega, 
 G. Zheng, W. Liang, M. Hada, M. Ehara, K. Toyota, R. Fukuda, 
 J. Hasegawa, M. Ishida, T. Nakajima, Y. Honda, O. Kitao, H. Nakai, 
 T. Vreven, K. Throssell, J. A. Montgomery, Jr., J. E. Peralta, 
 F. Ogliaro, M. J. Bearpark, J. J. Heyd, E. N. Brothers, K. N. Kudin, 
 V. N. Staroverov, T. A. Keith, R. Kobayashi, J. Normand, 
 K. Raghavachari, A. P. Rendell, J. C. Burant, S. S. Iyengar, 
 J. Tomasi, M. Cossi, J. M. Millam, M. Klene, C. Adamo, R. Cammi, 
 J. W. Ochterski, R. L. Martin, K. Morokuma, O. Farkas, 
 J. B. Foresman, and D. J. Fox, Gaussian, Inc., Wallingford CT, 2019.
 
 ******************************************
 Gaussian 16:  ES64L-G16RevC.02  7-Dec-2021
                24-Sep-2026 
 ******************************************
 %Chk=PFBS_FREQ_GEO_A.chk
 %NProcShared=8
 Will use up to    8 processors via shared memory.
 %Mem=48GB
 --------------------------------------
 #P MP2/6-31+G(d) Freq SCF=Tight NoSymm
 --------------------------------------
 1/10=4,30=1,38=1/1,3;
 2/12=2,15=1,17=6,18=5,40=1/2;
 3/5=1,6=6,7=11,11=9,25=1,30=1,71=2,140=1/1,2,3;
 4//1;
 5/5=2,32=2,38=5,98=1/2;
 8/6=3,8=1,10=2,19=11,30=-1/1;
 9/15=3,16=-3/6;
 11/6=1,8=1,15=11,17=12,24=-1,27=1,28=-2,29=300,31=1,32=6,42=3/1,2,10;
 10/6=2,21=1,31=1/2;
 8/6=4,8=1,10=2,19=11,30=-1/11,4;
 10/5=1,20=4,31=1/2;
 11/12=2,14=11,16=1,17=2,28=-2,31=1,42=3,76=2/2,10,12;
 6/7=2,8=2,9=2,10=2/1;
 7/8=1,10=1,12=2,25=1,30=1,44=2/1,2,3,16;
 1/10=4,30=1/3;
 99//99;
 Leave Link    1 at Thu Sep 24 06:14:24 2026, MaxMem=  6442450944 cpu:               0.0 elap:               0.0
 (Enter /opt/g16/l101.exe)
 --------------------------------------------------
 PFBS_ani GEO_A frozen reference harmonic frequency
 --------------------------------------------------
 Symbolic Z-matrix:
 Charge = -1 Multiplicity = 1
 S                    -2.22324  -0.80462  -0.30972 
 F                    -0.41145   1.89461  -1.02242 
 F                     0.61976   1.9031    0.9268 
 F                    -0.6479   -0.23469   1.77161 
 F                    -1.94513   1.42693   1.10594 
 F                     0.78419  -0.38054  -1.74807 
 F                     2.13327   1.20956  -1.03934 
 F                     1.27238  -1.78492   0.59771 
 F                     3.06132  -1.15662  -0.47262 
 F                     2.45802  -0.10808   1.34887 
 O                    -1.27506  -1.91793  -0.55266 
 O                    -3.30733  -1.07953   0.65889 
 O                    -2.59386  -0.00241  -1.4986 
 C                     0.03957   1.09113  -0.02272 
 C                    -1.15993   0.39461   0.6608 
 C                     1.20464   0.27315  -0.64503 
 C                     1.99075  -0.72388   0.24065 
 
 ITRead=  0  0  0  0  0  0  0  0  0  0  0  0  0  0  0  0  0
 MicOpt= -1 -1 -1 -1 -1 -1 -1 -1 -1 -1 -1 -1 -1 -1 -1 -1 -1
 NAtoms=     17 NQM=       17 NQMF=       0 NMMI=      0 NMMIF=      0
                NMic=       0 NMicF=      0.
                    Isotopes and Nuclear Properties:
 (Nuclear quadrupole moments (NQMom) in fm**2, nuclear magnetic moments (NMagM)
  in nuclear magnetons)

  Atom         1           2           3           4           5           6           7           8           9          10
 IAtWgt=          32          19          19          19          19          19          19          19          19          19
 AtmWgt=  31.9720718  18.9984032  18.9984032  18.9984032  18.9984032  18.9984032  18.9984032  18.9984032  18.9984032  18.9984032
 NucSpn=           0           1           1           1           1           1           1           1           1           1
 AtZEff=  -0.0000000  -0.0000000  -0.0000000  -0.0000000  -0.0000000  -0.0000000  -0.0000000  -0.0000000  -0.0000000  -0.0000000
 NQMom=    0.0000000   0.0000000   0.0000000   0.0000000   0.0000000   0.0000000   0.0000000   0.0000000   0.0000000   0.0000000
 NMagM=    0.0000000   2.6288670   2.6288670   2.6288670   2.6288670   2.6288670   2.6288670   2.6288670   2.6288670   2.6288670
 AtZNuc=  16.0000000   9.0000000   9.0000000   9.0000000   9.0000000   9.0000000   9.0000000   9.0000000   9.0000000   9.0000000

  Atom        11          12          13          14          15          16          17
 IAtWgt=          16          16          16          12          12          12          12
 AtmWgt=  15.9949146  15.9949146  15.9949146  12.0000000  12.0000000  12.0000000  12.0000000
 NucSpn=           0           0           0           0           0           0           0
 AtZEff=  -0.0000000  -0.0000000  -0.0000000  -0.0000000  -0.0000000  -0.0000000  -0.0000000
 NQMom=    0.0000000   0.0000000   0.0000000   0.0000000   0.0000000   0.0000000   0.0000000
 NMagM=    0.0000000   0.0000000   0.0000000   0.0000000   0.0000000   0.0000000   0.0000000
 AtZNuc=   8.0000000   8.0000000   8.0000000   6.0000000   6.0000000   6.0000000   6.0000000
 Leave Link  101 at Thu Sep 24 06:14:24 2026, MaxMem=  6442450944 cpu:               0.1 elap:               0.0
 (Enter /opt/g16/l103.exe)

 GradGradGradGradGradGradGradGradGradGradGradGradGradGradGradGradGradGrad
 Berny optimization.
 Initialization pass.
 Trust Radius=3.00D-01 FncErr=1.00D-07 GrdErr=1.00D-07 EigMax=2.50D+02 EigMin=1.00D-04
 Number of steps in this run=      2 maximum allowed number of steps=      2.
 GradGradGradGradGradGradGradGradGradGradGradGradGradGradGradGradGradGrad

 Leave Link  103 at Thu Sep 24 06:14:24 2026, MaxMem=  6442450944 cpu:               0.0 elap:               0.0
 (Enter /opt/g16/l202.exe)
                          Input orientation:                          
 ---------------------------------------------------------------------
 Center     Atomic      Atomic             Coordinates (Angstroms)
 Number     Number       Type             X           Y           Z
 ---------------------------------------------------------------------
      1         16           0       -2.223240   -0.804616   -0.309716
      2          9           0       -0.411446    1.894612   -1.022417
      3          9           0        0.619760    1.903096    0.926799
      4          9           0       -0.647900   -0.234686    1.771610
      5          9           0       -1.945126    1.426932    1.105942
      6          9           0        0.784186   -0.380539   -1.748071
      7          9           0        2.133273    1.209564   -1.039335
      8          9           0        1.272379   -1.784921    0.597714
      9          9           0        3.061321   -1.156616   -0.472617
     10          9           0        2.458020   -0.108078    1.348870
     11          8           0       -1.275064   -1.917928   -0.552665
     12          8           0       -3.307333   -1.079529    0.658887
     13          8           0       -2.593857   -0.002407   -1.498605
     14          6           0        0.039568    1.091129   -0.022721
     15          6           0       -1.159934    0.394612    0.660804
     16          6           0        1.204644    0.273153   -0.645027
     17          6           0        1.990750   -0.723877    0.240648
 ---------------------------------------------------------------------
                    Distance matrix (angstroms):
                    1          2          3          4          5
     1  S    0.000000
     2  F    3.328118   0.000000
     3  F    4.116227   2.205199   0.000000
     4  F    2.671785   3.520853   2.625030   0.000000
     5  F    2.657300   2.664735   2.614855   2.210630   0.000000
     6  F    3.360553   2.670660   3.520931   3.802670   4.342982
     7  F    4.854737   2.635370   2.576314   4.209774   4.613329
     8  F    3.742162   4.358790   3.759745   2.732898   4.574564
     9  F    5.298775   4.655360   4.157093   4.432248   5.850733
    10  F    5.015004   4.227009   2.757202   3.137113   4.669365
    11  O    1.482405   3.937253   4.514355   2.937497   3.793158
    12  O    1.479536   4.478667   4.938612   3.004080   2.887527
    13  O    1.481335   2.930589   4.454309   3.812481   3.040975
    14  C    2.965892   1.359555   1.377498   2.334528   2.307738
    15  C    1.873679   2.375598   2.348104   1.375531   1.371262
    16  C    3.608934   2.320194   2.338683   3.087062   3.783933
    17  C    4.250544   3.771254   3.041612   3.089600   4.567913
                    6          7          8          9         10
     6  F    0.000000
     7  F    2.202446   0.000000
     8  F    2.777288   3.519660   0.000000
     9  F    2.722943   2.604083   2.177312   0.000000
    10  F    3.530863   2.746846   2.186729   2.186599   0.000000
    11  O    2.834268   4.651324   2.798308   4.403435   4.563695
    12  O    4.798184   6.141995   4.634122   6.468848   5.887197
    13  O    3.408284   4.901588   4.745492   5.862242   5.800064
    14  C    2.386859   2.330479   3.190051   3.792855   3.027915
    15  C    3.191103   3.794712   3.266572   4.637881   3.716951
    16  C    1.349372   1.376480   2.405132   2.349726   2.385773
    17  C    2.351314   2.323114   1.330176   1.357251   1.351187
                   11         12         13         14         15
    11  O    0.000000
    12  O    2.510156   0.000000
    13  O    2.510625   2.514758   0.000000
    14  C    3.326187   4.046986   3.210761   0.000000
    15  C    2.614115   2.604691   2.622366   1.546334   0.000000
    16  C    3.310335   4.887523   3.902966   1.553625   2.703919
    17  C    3.566601   5.326452   4.956222   2.677820   3.369623
                   16         17
    16  C    0.000000
    17  C    1.548047   0.000000
 Symmetry turned off by external request.
 Stoichiometry    C4F9O3S(1-)
 Framework group  C1[X(C4F9O3S)]
 Deg. of freedom    45
 Full point group                 C1      NOp   1
 Rotational constants (GHZ):           0.7031113           0.3706923           0.3429228
 Leave Link  202 at Thu Sep 24 06:14:24 2026, MaxMem=  6442450944 cpu:               0.0 elap:               0.0
 (Enter /opt/g16/l301.exe)
 Standard basis: 6-31+G(d) (6D, 7F)
 Ernie: Thresh=  0.10000D-02 Tol=  0.10000D-05 Strict=F.
   327 basis functions,   568 primitive gaussians,   327 cartesian basis functions
    73 alpha electrons       73 beta electrons
       nuclear repulsion energy      1793.3922786709 Hartrees.
 IExCor=    0 DFT=F Ex=HF Corr=None ExCW=0 ScaHFX=  1.000000
 ScaDFX=  1.000000  1.000000  1.000000  1.000000 ScalE2=  1.000000  1.000000
 IRadAn=      5 IRanWt=     -1 IRanGd=            0 ICorTp=0 IEmpDi=  4
 NAtoms=   17 NActive=   17 NUniq=   17 SFac= 1.00D+00 NAtFMM=   60 NAOKFM=F Big=F
 Integral buffers will be    131072 words long.
 Raffenetti 1 integral format.
 Two-electron integral symmetry is turned off.
 Leave Link  301 at Thu Sep 24 06:14:24 2026, MaxMem=  6442450944 cpu:               0.0 elap:               0.0
 (Enter /opt/g16/l302.exe)
 NPDir=0 NMtPBC=     1 NCelOv=     1 NCel=       1 NClECP=     1 NCelD=      1
         NCelK=      1 NCelE2=     1 NClLst=     1 CellRange=     0.0.
 One-electron integrals computed using PRISM.
 NBasis=   327 RedAO= T EigKep=  1.27D-05  NBF=   327
 NBsUse=   327 1.00D-06 EigRej= -1.00D+00 NBFU=   327
 Leave Link  302 at Thu Sep 24 06:14:24 2026, MaxMem=  6442450944 cpu:               0.6 elap:               0.1
 (Enter /opt/g16/l303.exe)
 DipDrv:  MaxL=1.
 Leave Link  303 at Thu Sep 24 06:14:24 2026, MaxMem=  6442450944 cpu:               0.1 elap:               0.0
 (Enter /opt/g16/l401.exe)
 ExpMin= 4.05D-02 ExpMax= 2.19D+04 ExpMxC= 3.30D+03 IAcc=3 IRadAn=         5 AccDes= 0.00D+00
 Harris functional with IExCor=  205 and IRadAn=       5 diagonalized for initial guess.
 HarFok:  IExCor=  205 AccDes= 0.00D+00 IRadAn=         5 IDoV= 1 UseB2=F ITyADJ=14
 ICtDFT=  3500011 ScaDFX=  1.000000  1.000000  1.000000  1.000000
 FoFCou: FMM=F IPFlag=           0 FMFlag=      100000 FMFlg1=           0
         NFxFlg=           0 DoJE=T BraDBF=F KetDBF=T FulRan=T
         wScrn=  0.000000 ICntrl=       500 IOpCl=  0 I1Cent=   200000004 NGrid=           0
         NMat0=    1 NMatS0=      1 NMatT0=    0 NMatD0=    1 NMtDS0=    0 NMtDT0=    0
 Symmetry not used in FoFCou.
 Harris En= -1668.26373194805    
 JPrj=0 DoOrth=F DoCkMO=F.
 Leave Link  401 at Thu Sep 24 06:14:24 2026, MaxMem=  6442450944 cpu:               2.8 elap:               0.4
 (Enter /opt/g16/l502.exe)
 Two-electron integral symmetry not used.
 Closed shell SCF:
 Using DIIS extrapolation, IDIIS=  1040.
 NGot=  6442450944 LenX=  6442231751 LenY=  6442124381
 Requested convergence on RMS density matrix=1.00D-08 within 128 cycles.
 Requested convergence on MAX density matrix=1.00D-06.
 Requested convergence on             energy=1.00D-06.
 No special actions if energy rises.
 Fock matrices will be formed incrementally for  20 cycles.

 Cycle   1  Pass 1  IDiag  1:
 FoFJK:  IHMeth= 1 ICntrl=       0 DoSepK=F KAlg= 0 I1Cent=           0 FoldK=F
 IRaf= 900000000 NMat=       1 IRICut=       1 DoRegI=T DoRafI=F ISym2E= 0 IDoP0=0 IntGTp=1.
 FoFCou: FMM=F IPFlag=           0 FMFlag=      100000 FMFlg1=           0
         NFxFlg=           0 DoJE=F BraDBF=F KetDBF=F FulRan=T
         wScrn=  0.000000 ICntrl=         0 IOpCl=  0 I1Cent=           0 NGrid=           0
         NMat0=    1 NMatS0=      1 NMatT0=    0 NMatD0=    1 NMtDS0=    0 NMtDT0=    0
 Symmetry not used in FoFCou.
 E= -1668.08144816185    
 DIIS: error= 5.26D-02 at cycle   1 NSaved=   1.
 NSaved= 1 IEnMin= 1 EnMin= -1668.08144816185     IErMin= 1 ErrMin= 5.26D-02
 ErrMax= 5.26D-02  0.00D+00 EMaxC= 1.00D-01 BMatC= 1.20D+00 BMatP= 1.20D+00
 IDIUse=3 WtCom= 4.74D-01 WtEn= 5.26D-01
 Coeff-Com:  0.100D+01
 Coeff-En:   0.100D+01
 Coeff:      0.100D+01
 Gap=     0.603 Goal=   None    Shift=    0.000
 GapD=    0.603 DampG=2.000 DampE=0.500 DampFc=1.0000 IDamp=-1.
 RMSDP=1.42D-02 MaxDP=1.80D+00              OVMax= 1.65D-01

 Cycle   2  Pass 1  IDiag  1:
 RMSU=  1.36D-02    CP:  1.19D+00
 E= -1668.37884220526     Delta-E=       -0.297394043413 Rises=F Damp=F
 DIIS: error= 1.86D-02 at cycle   2 NSaved=   2.
 NSaved= 2 IEnMin= 2 EnMin= -1668.37884220526     IErMin= 2 ErrMin= 1.86D-02
 ErrMax= 1.86D-02  0.00D+00 EMaxC= 1.00D-01 BMatC= 2.15D-01 BMatP= 1.20D+00
 IDIUse=3 WtCom= 8.14D-01 WtEn= 1.86D-01
 Coeff-Com:  0.232D+00 0.768D+00
 Coeff-En:   0.878D-02 0.991D+00
 Coeff:      0.190D+00 0.810D+00
 Gap=     0.492 Goal=   None    Shift=    0.000
 RMSDP=4.47D-03 MaxDP=3.34D-01 DE=-2.97D-01 OVMax= 7.77D-02

 Cycle   3  Pass 1  IDiag  1:
 RMSU=  2.73D-03    CP:  1.14D+00  7.54D-01
 E= -1668.50308727503     Delta-E=       -0.124245069770 Rises=F Damp=F
 DIIS: error= 8.25D-03 at cycle   3 NSaved=   3.
 NSaved= 3 IEnMin= 3 EnMin= -1668.50308727503     IErMin= 3 ErrMin= 8.25D-03
 ErrMax= 8.25D-03  0.00D+00 EMaxC= 1.00D-01 BMatC= 4.34D-02 BMatP= 2.15D-01
 IDIUse=3 WtCom= 9.18D-01 WtEn= 8.25D-02
 Coeff-Com: -0.327D-01 0.289D+00 0.744D+00
 Coeff-En:   0.000D+00 0.277D-01 0.972D+00
 Coeff:     -0.300D-01 0.267D+00 0.763D+00
 Gap=     0.491 Goal=   None    Shift=    0.000
 RMSDP=1.59D-03 MaxDP=1.72D-01 DE=-1.24D-01 OVMax= 3.25D-02

 Cycle   4  Pass 1  IDiag  1:
 RMSU=  3.24D-04    CP:  1.16D+00  8.55D-01  7.84D-01
 E= -1668.53273785283     Delta-E=       -0.029650577803 Rises=F Damp=F
 DIIS: error= 4.91D-04 at cycle   4 NSaved=   4.
 NSaved= 4 IEnMin= 4 EnMin= -1668.53273785283     IErMin= 4 ErrMin= 4.91D-04
 ErrMax= 4.91D-04  0.00D+00 EMaxC= 1.00D-01 BMatC= 2.77D-04 BMatP= 4.34D-02
 IDIUse=3 WtCom= 9.95D-01 WtEn= 4.91D-03
 Coeff-Com: -0.259D-02-0.170D-01 0.147D-01 0.100D+01
 Coeff-En:   0.000D+00 0.000D+00 0.000D+00 0.100D+01
 Coeff:     -0.258D-02-0.169D-01 0.146D-01 0.100D+01
 Gap=     0.459 Goal=   None    Shift=    0.000
 RMSDP=2.12D-04 MaxDP=2.00D-02 DE=-2.97D-02 OVMax= 3.45D-03

 Cycle   5  Pass 1  IDiag  1:
 RMSU=  1.03D-04    CP:  1.16D+00  8.44D-01  8.19D-01  1.10D+00
 E= -1668.53310445750     Delta-E=       -0.000366604663 Rises=F Damp=F
 DIIS: error= 1.79D-04 at cycle   5 NSaved=   5.
 NSaved= 5 IEnMin= 5 EnMin= -1668.53310445750     IErMin= 5 ErrMin= 1.79D-04
 ErrMax= 1.79D-04  0.00D+00 EMaxC= 1.00D-01 BMatC= 5.16D-05 BMatP= 2.77D-04
 IDIUse=3 WtCom= 9.98D-01 WtEn= 1.79D-03
 Coeff-Com:  0.271D-02-0.341D-01-0.785D-01 0.259D+00 0.851D+00
 Coeff-En:   0.000D+00 0.000D+00 0.000D+00 0.000D+00 0.100D+01
 Coeff:      0.270D-02-0.340D-01-0.784D-01 0.258D+00 0.851D+00
 Gap=     0.460 Goal=   None    Shift=    0.000
 RMSDP=5.95D-05 MaxDP=5.22D-03 DE=-3.67D-04 OVMax= 2.02D-03

 Cycle   6  Pass 1  IDiag  1:
 RMSU=  3.29D-05    CP:  1.16D+00  8.42D-01  8.20D-01  1.20D+00  1.19D+00
 E= -1668.53316741853     Delta-E=       -0.000062961034 Rises=F Damp=F
 DIIS: error= 5.34D-05 at cycle   6 NSaved=   6.
 NSaved= 6 IEnMin= 6 EnMin= -1668.53316741853     IErMin= 6 ErrMin= 5.34D-05
 ErrMax= 5.34D-05  0.00D+00 EMaxC= 1.00D-01 BMatC= 4.05D-06 BMatP= 5.16D-05
 IDIUse=1 WtCom= 1.00D+00 WtEn= 0.00D+00
 Coeff-Com:  0.565D-03-0.149D-02-0.902D-02-0.763D-01 0.564D-01 0.103D+01
 Coeff:      0.565D-03-0.149D-02-0.902D-02-0.763D-01 0.564D-01 0.103D+01
 Gap=     0.461 Goal=   None    Shift=    0.000
 RMSDP=3.44D-05 MaxDP=3.81D-03 DE=-6.30D-05 OVMax= 9.36D-04

 Cycle   7  Pass 1  IDiag  1:
 RMSU=  1.21D-05    CP:  1.16D+00  8.41D-01  8.22D-01  1.22D+00  1.34D+00
                    CP:  1.23D+00
 E= -1668.53317559211     Delta-E=       -0.000008173584 Rises=F Damp=F
 DIIS: error= 2.15D-05 at cycle   7 NSaved=   7.
 NSaved= 7 IEnMin= 7 EnMin= -1668.53317559211     IErMin= 7 ErrMin= 2.15D-05
 ErrMax= 2.15D-05  0.00D+00 EMaxC= 1.00D-01 BMatC= 5.51D-07 BMatP= 4.05D-06
 IDIUse=1 WtCom= 1.00D+00 WtEn= 0.00D+00
 Coeff-Com: -0.270D-03 0.446D-02 0.983D-02-0.465D-01-0.106D+00 0.117D+00
 Coeff-Com:  0.102D+01
 Coeff:     -0.270D-03 0.446D-02 0.983D-02-0.465D-01-0.106D+00 0.117D+00
 Coeff:      0.102D+01
 Gap=     0.461 Goal=   None    Shift=    0.000
 RMSDP=1.29D-05 MaxDP=1.24D-03 DE=-8.17D-06 OVMax= 4.49D-04

 Cycle   8  Pass 1  IDiag  1:
 RMSU=  5.39D-06    CP:  1.16D+00  8.40D-01  8.23D-01  1.23D+00  1.39D+00
                    CP:  1.39D+00  1.30D+00
 E= -1668.53317675198     Delta-E=       -0.000001159864 Rises=F Damp=F
 DIIS: error= 7.89D-06 at cycle   8 NSaved=   8.
 NSaved= 8 IEnMin= 8 EnMin= -1668.53317675198     IErMin= 8 ErrMin= 7.89D-06
 ErrMax= 7.89D-06  0.00D+00 EMaxC= 1.00D-01 BMatC= 6.71D-08 BMatP= 5.51D-07
 IDIUse=1 WtCom= 1.00D+00 WtEn= 0.00D+00
 Coeff-Com: -0.109D-03 0.109D-02 0.298D-02-0.292D-02-0.254D-01-0.737D-01
 Coeff-Com:  0.209D+00 0.889D+00
 Coeff:     -0.109D-03 0.109D-02 0.298D-02-0.292D-02-0.254D-01-0.737D-01
 Coeff:      0.209D+00 0.889D+00
 Gap=     0.461 Goal=   None    Shift=    0.000
 RMSDP=3.62D-06 MaxDP=3.02D-04 DE=-1.16D-06 OVMax= 1.19D-04

 Cycle   9  Pass 1  IDiag  1:
 RMSU=  1.47D-06    CP:  1.16D+00  8.40D-01  8.23D-01  1.23D+00  1.40D+00
                    CP:  1.41D+00  1.48D+00  1.10D+00
 E= -1668.53317685527     Delta-E=       -0.000000103291 Rises=F Damp=F
 DIIS: error= 2.69D-06 at cycle   9 NSaved=   9.
 NSaved= 9 IEnMin= 9 EnMin= -1668.53317685527     IErMin= 9 ErrMin= 2.69D-06
 ErrMax= 2.69D-06  0.00D+00 EMaxC= 1.00D-01 BMatC= 9.62D-09 BMatP= 6.71D-08
 IDIUse=1 WtCom= 1.00D+00 WtEn= 0.00D+00
 Coeff-Com:  0.170D-04-0.435D-03-0.819D-03 0.623D-02 0.105D-01-0.327D-01
 Coeff-Com: -0.108D+00 0.197D+00 0.928D+00
 Coeff:      0.170D-04-0.435D-03-0.819D-03 0.623D-02 0.105D-01-0.327D-01
 Coeff:     -0.108D+00 0.197D+00 0.928D+00
 Gap=     0.461 Goal=   None    Shift=    0.000
 RMSDP=1.12D-06 MaxDP=4.60D-05 DE=-1.03D-07 OVMax= 4.88D-05

 Cycle  10  Pass 1  IDiag  1:
 RMSU=  4.77D-07    CP:  1.16D+00  8.40D-01  8.23D-01  1.23D+00  1.40D+00
                    CP:  1.41D+00  1.52D+00  1.23D+00  1.12D+00
 E= -1668.53317687061     Delta-E=       -0.000000015336 Rises=F Damp=F
 DIIS: error= 8.81D-07 at cycle  10 NSaved=  10.
 NSaved=10 IEnMin=10 EnMin= -1668.53317687061     IErMin=10 ErrMin= 8.81D-07
 ErrMax= 8.81D-07  0.00D+00 EMaxC= 1.00D-01 BMatC= 6.00D-10 BMatP= 9.62D-09
 IDIUse=1 WtCom= 1.00D+00 WtEn= 0.00D+00
 Coeff-Com:  0.846D-05-0.613D-04-0.200D-03-0.395D-03 0.127D-02 0.111D-01
 Coeff-Com: -0.104D-01-0.106D+00-0.899D-01 0.119D+01
 Coeff:      0.846D-05-0.613D-04-0.200D-03-0.395D-03 0.127D-02 0.111D-01
 Coeff:     -0.104D-01-0.106D+00-0.899D-01 0.119D+01
 Gap=     0.461 Goal=   None    Shift=    0.000
 RMSDP=4.45D-07 MaxDP=3.43D-05 DE=-1.53D-08 OVMax= 1.76D-05

 Cycle  11  Pass 1  IDiag  1:
 RMSU=  1.81D-07    CP:  1.16D+00  8.40D-01  8.23D-01  1.23D+00  1.40D+00
                    CP:  1.42D+00  1.53D+00  1.25D+00  1.22D+00  1.32D+00
 E= -1668.53317687214     Delta-E=       -0.000000001532 Rises=F Damp=F
 DIIS: error= 2.25D-07 at cycle  11 NSaved=  11.
 NSaved=11 IEnMin=11 EnMin= -1668.53317687214     IErMin=11 ErrMin= 2.25D-07
 ErrMax= 2.25D-07  0.00D+00 EMaxC= 1.00D-01 BMatC= 5.28D-11 BMatP= 6.00D-10
 IDIUse=1 WtCom= 1.00D+00 WtEn= 0.00D+00
 Coeff-Com: -0.123D-05 0.325D-04 0.563D-04-0.484D-03-0.799D-03 0.288D-02
 Coeff-Com:  0.793D-02-0.205D-01-0.754D-01 0.690D-01 0.102D+01
 Coeff:     -0.123D-05 0.325D-04 0.563D-04-0.484D-03-0.799D-03 0.288D-02
 Coeff:      0.793D-02-0.205D-01-0.754D-01 0.690D-01 0.102D+01
 Gap=     0.461 Goal=   None    Shift=    0.000
 RMSDP=1.26D-07 MaxDP=1.40D-05 DE=-1.53D-09 OVMax= 3.98D-06

 Cycle  12  Pass 1  IDiag  1:
 RMSU=  4.58D-08    CP:  1.16D+00  8.40D-01  8.23D-01  1.23D+00  1.40D+00
                    CP:  1.42D+00  1.53D+00  1.26D+00  1.22D+00  1.43D+00
                    CP:  1.22D+00
 E= -1668.53317687224     Delta-E=       -0.000000000099 Rises=F Damp=F
 DIIS: error= 7.33D-08 at cycle  12 NSaved=  12.
 NSaved=12 IEnMin=12 EnMin= -1668.53317687224     IErMin=12 ErrMin= 7.33D-08
 ErrMax= 7.33D-08  0.00D+00 EMaxC= 1.00D-01 BMatC= 7.53D-12 BMatP= 5.28D-11
 IDIUse=1 WtCom= 1.00D+00 WtEn= 0.00D+00
 Coeff-Com: -0.124D-05 0.147D-04 0.356D-04-0.629D-04-0.339D-03-0.642D-03
 Coeff-Com:  0.316D-02 0.825D-02-0.559D-02-0.128D+00 0.185D+00 0.938D+00
 Coeff:     -0.124D-05 0.147D-04 0.356D-04-0.629D-04-0.339D-03-0.642D-03
 Coeff:      0.316D-02 0.825D-02-0.559D-02-0.128D+00 0.185D+00 0.938D+00
 Gap=     0.461 Goal=   None    Shift=    0.000
 RMSDP=3.66D-08 MaxDP=3.62D-06 DE=-9.91D-11 OVMax= 1.29D-06

 Cycle  13  Pass 1  IDiag  1:
 RMSU=  1.34D-08    CP:  1.16D+00  8.40D-01  8.23D-01  1.23D+00  1.40D+00
                    CP:  1.42D+00  1.53D+00  1.26D+00  1.22D+00  1.45D+00
                    CP:  1.32D+00  1.19D+00
 E= -1668.53317687225     Delta-E=       -0.000000000014 Rises=F Damp=F
 DIIS: error= 2.41D-08 at cycle  13 NSaved=  13.
 NSaved=13 IEnMin=13 EnMin= -1668.53317687225     IErMin=13 ErrMin= 2.41D-08
 ErrMax= 2.41D-08  0.00D+00 EMaxC= 1.00D-01 BMatC= 5.56D-13 BMatP= 7.53D-12
 IDIUse=1 WtCom= 1.00D+00 WtEn= 0.00D+00
 Coeff-Com: -0.660D-08-0.129D-05-0.912D-06 0.396D-04 0.364D-04-0.342D-03
 Coeff-Com: -0.442D-03 0.273D-02 0.642D-02-0.172D-01-0.789D-01 0.894D-01
 Coeff-Com:  0.998D+00
 Coeff:     -0.660D-08-0.129D-05-0.912D-06 0.396D-04 0.364D-04-0.342D-03
 Coeff:     -0.442D-03 0.273D-02 0.642D-02-0.172D-01-0.789D-01 0.894D-01
 Coeff:      0.998D+00
 Gap=     0.461 Goal=   None    Shift=    0.000
 RMSDP=1.01D-08 MaxDP=5.54D-07 DE=-1.36D-11 OVMax= 4.42D-07

 Cycle  14  Pass 1  IDiag  1:
 RMSU=  4.74D-09    CP:  1.16D+00  8.40D-01  8.23D-01  1.23D+00  1.40D+00
                    CP:  1.42D+00  1.53D+00  1.26D+00  1.22D+00  1.45D+00
                    CP:  1.34D+00  1.29D+00  1.24D+00
 E= -1668.53317687227     Delta-E=       -0.000000000018 Rises=F Damp=F
 DIIS: error= 7.26D-09 at cycle  14 NSaved=  14.
 NSaved=14 IEnMin=14 EnMin= -1668.53317687227     IErMin=14 ErrMin= 7.26D-09
 ErrMax= 7.26D-09  0.00D+00 EMaxC= 1.00D-01 BMatC= 5.59D-14 BMatP= 5.56D-13
 IDIUse=1 WtCom= 1.00D+00 WtEn= 0.00D+00
 Coeff-Com:  0.565D-07-0.756D-06-0.161D-05 0.955D-06 0.161D-04 0.511D-04
 Coeff-Com: -0.160D-03-0.634D-03 0.938D-04 0.983D-02-0.155D-01-0.762D-01
 Coeff-Com: -0.265D-02 0.109D+01
 Coeff:      0.565D-07-0.756D-06-0.161D-05 0.955D-06 0.161D-04 0.511D-04
 Coeff:     -0.160D-03-0.634D-03 0.938D-04 0.983D-02-0.155D-01-0.762D-01
 Coeff:     -0.265D-02 0.109D+01
 Gap=     0.461 Goal=   None    Shift=    0.000
 RMSDP=3.68D-09 MaxDP=2.55D-07 DE=-1.82D-11 OVMax= 1.46D-07

 SCF Done:  E(RHF) =  -1668.53317687     A.U. after   14 cycles
            NFock= 14  Conv=0.37D-08     -V/T= 2.0030
 KE= 1.663603233039D+03 PE=-7.574690355629D+03 EE= 2.449161667046D+03
 Leave Link  502 at Thu Sep 24 06:14:38 2026, MaxMem=  6442450944 cpu:             104.4 elap:              13.8
 (Enter /opt/g16/l801.exe)
 ExpMin= 4.05D-02 ExpMax= 2.19D+04 ExpMxC= 3.30D+03 IAcc=3 IRadAn=         5 AccDes= 0.00D+00
 HarFok:  IExCor=  205 AccDes= 0.00D+00 IRadAn=         5 IDoV=-2 UseB2=F ITyADJ=14
 ICtDFT= 12500011 ScaDFX=  1.000000  1.000000  1.000000  1.000000
 GSVD:  LWork=        -609 too small for GESVD, short by        2520 words or        2520 for optimal perf.
 Largest valence mixing into a core orbital is  5.08D-04
 Largest core mixing into a valence orbital is  9.50D-05
 Range of M.O.s used for correlation:    22   327
 NBasis=   327 NAE=    73 NBE=    73 NFC=    21 NFV=     0
 NROrb=    306 NOA=    52 NOB=    52 NVA=   254 NVB=   254

 **** Warning!!: The largest alpha MO coefficient is  0.88427803D+02

 Leave Link  801 at Thu Sep 24 06:14:38 2026, MaxMem=  6442450944 cpu:               0.3 elap:               0.1
 (Enter /opt/g16/l906.exe)
 Frozen-core derivative calculation, NFC=  21 NFV=   0.
 FulOut=F Deriv=T AODrv=T NAtomX=    17
   MMem=           0  MDisk=          52 MDiskD=          52
  W3Min=     7805817 MinDsk=    14242127 NBas6D=         327
 NBas2D=       54195    NTT=       53628    LW2=     3300000
    MDV=  6441365627 MDiskM=      273503 NBas2p=       52502
 Disk-based method using ON**2 memory for 52 occupieds at a time.
 Permanent disk used for amplitudes=   428246032 words.
 Estimated scratch disk usage=  3418956150 words.
 IMap=   1   2   3   4   5   6   7   8   9  10  11  12  13  14  15  16  17  18  19  20
 IMap=  21  22  23  24  25  26  27  28  29  30  31  32  33  34  35  36  37  38  39  40
 IMap=  41  42  43  44  45  46  47  48  49  50  51  52  53  54  55  56  57  58  59  60
 IMap=  61  62  63  64  65  66  67  68  69  70  71  72  73
 Actual    scratch disk usage=  3112687478 words.
 JobTyp=1 Pass  1:  I=  22 to  73 NPSUse=  8 ParTrn=T ParDer=T DoDerP=T.
 (rs|ai) integrals will be sorted in core.
 Spin components of T(2) and E(2):
     alpha-alpha T2 =       0.1075415210D+00 E2=     -0.4001176032D+00
     alpha-beta  T2 =       0.5261281128D+00 E2=     -0.2008426995D+01
     beta-beta   T2 =       0.1075415210D+00 E2=     -0.4001176032D+00
 The integrals were generated   1 times.
 ANorm=    0.1319549603D+01
 E2 =    -0.2808662201D+01 EUMP2 =    -0.16713418390736D+04
 Leave Link  906 at Thu Sep 24 06:25:54 2026, MaxMem=  6442450944 cpu:            5189.0 elap:             675.5
 (Enter /opt/g16/l1101.exe)
 Using compressed Sx but separate Hx and Fx, NAtomX=    17.
 Will process     18 centers per pass.
 Leave Link 1101 at Thu Sep 24 06:25:54 2026, MaxMem=  6442450944 cpu:               0.7 elap:               0.1
 (Enter /opt/g16/l1102.exe)
 Leave Link 1102 at Thu Sep 24 06:25:54 2026, MaxMem=  6442450944 cpu:               0.0 elap:               0.0
 (Enter /opt/g16/l1110.exe)
 Forming Gx(P) for the SCF density, NAtomX=    17.
 Integral derivatives from FoFJK, PRISM(SPDF).
 Do as many integral derivatives as possible in FoFJK.
 G2DrvN: MDV=    6442449057.
 G2DrvN: will do    18 centers at a time, making    1 passes.
 Calling FoFCou, ICntrl=  3107 FMM=F I1Cent=   0 AccDes= 0.00D+00.
 FoFJK:  IHMeth= 1 ICntrl=    3107 DoSepK=F KAlg= 0 I1Cent=           0 FoldK=F
 IRaf=         0 NMat=       1 IRICut=       1 DoRegI=T DoRafI=F ISym2E= 0 IDoP0=0 IntGTp=1.
 FoFCou: FMM=F IPFlag=           0 FMFlag=      100000 FMFlg1=           0
         NFxFlg=           0 DoJE=F BraDBF=F KetDBF=F FulRan=T
         wScrn=  0.000000 ICntrl=      3107 IOpCl=  0 I1Cent=           0 NGrid=           0
         NMat0=    1 NMatS0=      1 NMatT0=    0 NMatD0=    1 NMtDS0=    0 NMtDT0=    0
 Symmetry not used in FoFCou.
 End of G2Drv F.D. properties file   721 does not exist.
 End of G2Drv F.D. properties file   722 does not exist.
 End of G2Drv F.D. properties file   788 does not exist.
 Leave Link 1110 at Thu Sep 24 06:26:04 2026, MaxMem=  6442450944 cpu:              77.9 elap:               9.8
 (Enter /opt/g16/l1002.exe)
 Minotr:  Closed shell wavefunction.
          IDoAtm=11111111111111111
          Frozen-core window.
          Direct CPHF calculation.
          Differentiating once with respect to electric field.
                with respect to dipole field.
          Differentiating once with respect to nuclear coordinates.
          Requested convergence is 1.0D-08 RMS, and 1.0D-07 maximum.
          Secondary convergence is 1.0D-12 RMS, and 1.0D-12 maximum.
          NewPWx=T KeepS1=T KeepF1=T KeepIn=T MapXYZ=F SortEE=F KeepMc=T.
 Keep R1 ints in memory in canonical form, NReq=1455655529.
 FoFCou: FMM=F IPFlag=           0 FMFlag=           0 FMFlg1=           0
         NFxFlg=           0 DoJE=F BraDBF=F KetDBF=F FulRan=T
         wScrn=  0.000000 ICntrl=       600 IOpCl=  0 I1Cent=           0 NGrid=           0
         NMat0=    1 NMatS0=  53628 NMatT0=    0 NMatD0=    1 NMtDS0=    0 NMtDT0=    0
 Symmetry not used in FoFCou.
 Two-electron integral symmetry not used.
          MDV=    6442450944 using IRadAn=       1.
          Solving linear equations simultaneously, MaxMat=       0.
          There are    54 degrees of freedom in the 1st order CPHF.  IDoFFX=6 NUNeed=    54.
     51 vectors produced by pass  0 Test12= 3.43D-14 1.85D-09 XBig12= 1.67D+01 6.54D-01.
 AX will form    51 AO Fock derivatives at one time.
     51 vectors produced by pass  1 Test12= 3.43D-14 1.85D-09 XBig12= 1.38D+00 1.08D-01.
     51 vectors produced by pass  2 Test12= 3.43D-14 1.85D-09 XBig12= 5.37D-02 2.82D-02.
     51 vectors produced by pass  3 Test12= 3.43D-14 1.85D-09 XBig12= 1.60D-03 4.15D-03.
     51 vectors produced by pass  4 Test12= 3.43D-14 1.85D-09 XBig12= 3.85D-05 6.20D-04.
     51 vectors produced by pass  5 Test12= 3.43D-14 1.85D-09 XBig12= 4.53D-07 6.56D-05.
     51 vectors produced by pass  6 Test12= 3.43D-14 1.85D-09 XBig12= 3.95D-09 5.61D-06.
     49 vectors produced by pass  7 Test12= 3.43D-14 1.85D-09 XBig12= 3.20D-11 3.73D-07.
      6 vectors produced by pass  8 Test12= 3.43D-14 1.85D-09 XBig12= 2.10D-13 3.14D-08.
      3 vectors produced by pass  9 Test12= 3.43D-14 1.85D-09 XBig12= 1.65D-15 3.08D-09.
 InvSVY:  IOpt=1 It=  1 EMax= 1.78D-15
 Solved reduced A of dimension   415 with    54 vectors.
 FullF1:  Do perturbations      1 to      54.
 Saving first derivative matrices.
 End of Minotr F.D. properties file   721 does not exist.
 End of Minotr F.D. properties file   722 does not exist.
 End of Minotr F.D. properties file   788 does not exist.
 Leave Link 1002 at Thu Sep 24 06:26:37 2026, MaxMem=  6442450944 cpu:             253.4 elap:              33.1
 (Enter /opt/g16/l811.exe)
 MDV=  6442450944.
 Form MO integral derivatives with frozen-active canonical formalism.
 MOERI=1 MOERIx=1 NAtoms=    17 NAtomX=    17.
 Discarding MO integrals.
 MO basis two electron integral derivatives will not be stored on disk.
 IAlg= 3 DoFC=T DoPWx=T Debug=F.
 Frozen-core window:  NFC=  21 NFV=   0.
 Reordered first order wavefunction length =    687611528
 In DefCFB: NBatch=  1 ICI= 73 ICA=254 LFMax= 64
            Large arrays: LIAPS=  7930710072 LIARS=   976180674 words.
 In StABat: MaxSiz= 23 MinSiz= 19 NAtomB= 17
 DoIAMN: NPSUse=  8.
 Leave Link  811 at Thu Sep 24 07:01:54 2026, MaxMem=  6442450944 cpu:            7321.0 elap:            2116.5
 (Enter /opt/g16/l804.exe)
 Frozen-core window:  NFC=  21 NFV=   0.
 Closed-shell transformation, MDV=  6442450944 ITran=4 ISComp=1.
 Semi-Direct transformation.
 ModeAB=           4 MOrb=            73 LenV=    6440042962
 LASXX=   1076201916 LTotXX=  1076201916 LenRXX=  2165339578
 LTotAB=  1089137662 MaxLAS=  1203790659 LenRXY=           0
 NonZer=  3241541494 LenScr=  6508507136 LnRSAI=  1203790659
 LnScr1=  1812767744 LExtra=           0 Total=  11690405117
 MaxDsk=          -1 SrtSym=           T ITran=            4
 DoSDTr:  NPSUse=  8
 JobTyp=0 Pass  1:  I=   1 to  73.
 (rs|ai) integrals will be sorted in core.
 Complete sort for first half transformation.
 First half transformation complete.
 Begin second half transformation for I=  10.
 Begin second half transformation for I=  20.
 Begin second half transformation for I=  30.
 Begin second half transformation for I=  40.
 Begin second half transformation for I=  50.
 Begin second half transformation for I=  60.
 Begin second half transformation for I=  70.
 Complete sort for second half transformation.
 Second half transformation complete.
 Spin components of T(2) and E(2):
     alpha-alpha T2 =       0.1075415210D+00 E2=     -0.4001176032D+00
     alpha-beta  T2 =       0.5261281128D+00 E2=     -0.2008426995D+01
     beta-beta   T2 =       0.1075415210D+00 E2=     -0.4001176032D+00
 ANorm=    0.1866124945D+01
 E2 =    -0.2808662201D+01 EUMP2 =    -0.16713418390736D+04
 Leave Link  804 at Thu Sep 24 07:04:11 2026, MaxMem=  6442450944 cpu:             620.4 elap:             137.4
 (Enter /opt/g16/l1002.exe)
 Minotr:  Closed shell wavefunction.
          Computing MP2/KS-MP2 derivatives.
          Using Z-Vector for PSCF gradient.
          Skipping F1 and S1 gradient terms here.
          IDoAtm=11111111111111111
          Frozen-core window.
          Using MO integrals in the linear equations.
          Forming densities via direct SCF.
          Differentiating once with respect to electric field.
                with respect to dipole field.
          Differentiating once with respect to nuclear coordinates.
          Requested convergence is 1.0D-10 RMS, and 1.0D-09 maximum.
          NewPWx=F KeepS1=T KeepF1=T KeepIn=T MapXYZ=F SortEE=F KeepMc=T.
          MDV=    6442450944 using IRadAn=       5.
          Solving linear equations separately, MaxMat=       0.
          There are     1 degrees of freedom in the 1st order CPHF.  IDoFFX=0 NUNeed=     1.
 FoFJK:  IHMeth= 1 ICntrl=       0 DoSepK=F KAlg= 0 I1Cent=           0 FoldK=F
 IRaf=         0 NMat=       1 IRICut=       1 DoRegI=T DoRafI=F ISym2E= 0 IDoP0=0 IntGTp=1.
 FoFCou: FMM=F IPFlag=           0 FMFlag=      100000 FMFlg1=           0
         NFxFlg=           0 DoJE=F BraDBF=F KetDBF=F FulRan=T
         wScrn=  0.000000 ICntrl=         0 IOpCl=  0 I1Cent=           0 NGrid=           0
         NMat0=    1 NMatS0=      1 NMatT0=    0 NMatD0=    1 NMtDS0=    0 NMtDT0=    0
 Symmetry not used in FoFCou.
 LinEq1:  Iter=  0 NonCon=     1 RMS=4.20D-03 Max=6.16D-02 NDo=     1
 LinEq1:  Iter=  1 NonCon=     1 RMS=1.53D-03 Max=2.93D-02 NDo=     1
 LinEq1:  Iter=  2 NonCon=     1 RMS=3.53D-04 Max=7.88D-03 NDo=     1
 LinEq1:  Iter=  3 NonCon=     1 RMS=1.09D-04 Max=2.32D-03 NDo=     1
 LinEq1:  Iter=  4 NonCon=     1 RMS=4.15D-05 Max=7.22D-04 NDo=     1
 LinEq1:  Iter=  5 NonCon=     1 RMS=1.07D-05 Max=1.67D-04 NDo=     1
 LinEq1:  Iter=  6 NonCon=     1 RMS=3.94D-06 Max=9.91D-05 NDo=     1
 LinEq1:  Iter=  7 NonCon=     1 RMS=1.47D-06 Max=3.10D-05 NDo=     1
 LinEq1:  Iter=  8 NonCon=     1 RMS=5.40D-07 Max=7.86D-06 NDo=     1
 LinEq1:  Iter=  9 NonCon=     1 RMS=1.57D-07 Max=4.25D-06 NDo=     1
 LinEq1:  Iter= 10 NonCon=     1 RMS=5.63D-08 Max=1.58D-06 NDo=     1
 LinEq1:  Iter= 11 NonCon=     1 RMS=1.79D-08 Max=2.66D-07 NDo=     1
 LinEq1:  Iter= 12 NonCon=     1 RMS=5.42D-09 Max=1.32D-07 NDo=     1
 LinEq1:  Iter= 13 NonCon=     1 RMS=1.37D-09 Max=1.60D-08 NDo=     1
 LinEq1:  Iter= 14 NonCon=     1 RMS=5.10D-10 Max=6.68D-09 NDo=     1
 LinEq1:  Iter= 15 NonCon=     1 RMS=1.67D-10 Max=2.11D-09 NDo=     1
 LinEq1:  Iter= 16 NonCon=     1 RMS=6.72D-11 Max=1.19D-09 NDo=     1
 LinEq1:  Iter= 17 NonCon=     0 RMS=2.47D-11 Max=4.59D-10 NDo=     1
 Linear equations converged to 1.000D-10 1.000D-09 after    17 iterations.
 End of Minotr F.D. properties file   721 does not exist.
 End of Minotr F.D. properties file   722 does not exist.
 End of Minotr F.D. properties file   788 does not exist.
 Leave Link 1002 at Thu Sep 24 07:04:41 2026, MaxMem=  6442450944 cpu:              51.1 elap:              30.1
 (Enter /opt/g16/l1102.exe)
 Use density number 2.
 Symmetrizing basis deriv contribution to polar:
 IMax=3 JMax=2 DiffMx= 0.00D+00
 Leave Link 1102 at Thu Sep 24 07:04:41 2026, MaxMem=  6442450944 cpu:               0.1 elap:               0.0
 (Enter /opt/g16/l1110.exe)
 Forming Gx(P) for generalized density number  2 NAtomX=    17.
 Integral derivatives from FoFJK, PRISM(SPDF).
 Do as many integral derivatives as possible in FoFJK.
 G2DrvN: MDV=    6442449057.
 G2DrvN: will do    18 centers at a time, making    1 passes.
 Calling FoFCou, ICntrl=  3107 FMM=F I1Cent=   0 AccDes= 0.00D+00.
 FoFJK:  IHMeth= 1 ICntrl=    3107 DoSepK=F KAlg= 0 I1Cent=           0 FoldK=F
 IRaf=         0 NMat=       1 IRICut=       1 DoRegI=T DoRafI=F ISym2E= 0 IDoP0=0 IntGTp=1.
 FoFCou: FMM=F IPFlag=           0 FMFlag=      100000 FMFlg1=           0
         NFxFlg=           0 DoJE=F BraDBF=F KetDBF=F FulRan=T
         wScrn=  0.000000 ICntrl=      3107 IOpCl=  0 I1Cent=           0 NGrid=           0
         NMat0=    1 NMatS0=      1 NMatT0=    0 NMatD0=    1 NMtDS0=    0 NMtDT0=    0
 Symmetry not used in FoFCou.
 End of G2Drv F.D. properties file   721 does not exist.
 End of G2Drv F.D. properties file   722 does not exist.
 End of G2Drv F.D. properties file   788 does not exist.
 Leave Link 1110 at Thu Sep 24 07:04:51 2026, MaxMem=  6442450944 cpu:              75.8 elap:               9.6
 (Enter /opt/g16/l1112.exe)
 MP22nd: MDV=    6442450944
 This link is doing NAtomX=    17 total of    54 degrees of freedom.
 Using ON3 I/O method in MakUI.
 Frozen-core window:  NFC=  21 NFV=   0.
 Using Ix for Sx.
 Use MO integrals over full window.
 Using OV2 memory method for fx*t*t/D, MaxI=    73 DoOO2=F NP=   8.
 R2 and R3 integrals will be kept in memory, NReq=  2893659624.
 FoFCou: FMM=F IPFlag=           0 FMFlag=           0 FMFlg1=           0
         NFxFlg=           0 DoJE=F BraDBF=F KetDBF=F FulRan=T
         wScrn=  0.000000 ICntrl=       600 IOpCl=  0 I1Cent=           0 NGrid=           0
         NMat0=    1 NMatS0=      1 NMatT0=    0 NMatD0=    1 NMtDS0=    0 NMtDT0=    0
 Symmetry not used in FoFCou.
 DD1Dir will call FoFMem   1 times, MxPair=      5402
 NAB=  2701 NAA=     0 NBB=     0.
 FoFJK:  IHMeth= 1 ICntrl=       0 DoSepK=F KAlg= 0 I1Cent=           0 FoldK=F
 IRaf=         0 NMat=      54 IRICut=     135 DoRegI=T DoRafI=T ISym2E= 0 IDoP0=0 IntGTp=1.
 Discarding MO integrals.
 Leave Link 1112 at Thu Sep 24 07:30:21 2026, MaxMem=  6442450944 cpu:           10691.1 elap:            1529.6
 (Enter /opt/g16/l601.exe)
 Copying SCF densities to generalized density rwf, IOpCl= 0 IROHF=0.

 **********************************************************************

            Population analysis using the SCF Density.

 **********************************************************************

 Alpha  occ. eigenvalues --  -92.07954 -26.28372 -26.28129 -26.27704 -26.26923
 Alpha  occ. eigenvalues --  -26.26679 -26.25678 -26.25469 -26.23687 -26.23240
 Alpha  occ. eigenvalues --  -20.41203 -20.41200 -20.41163 -11.45815 -11.38903
 Alpha  occ. eigenvalues --  -11.37524 -11.34234  -9.04437  -6.73077  -6.73023
 Alpha  occ. eigenvalues --   -6.73016  -1.65931  -1.61402  -1.59158  -1.56616
 Alpha  occ. eigenvalues --   -1.56307  -1.56086  -1.54383  -1.53039  -1.50749
 Alpha  occ. eigenvalues --   -1.32411  -1.17827  -1.17800  -1.02132  -0.94813
 Alpha  occ. eigenvalues --   -0.87619  -0.81859  -0.77634  -0.75701  -0.75334
 Alpha  occ. eigenvalues --   -0.73532  -0.71826  -0.71439  -0.68746  -0.67888
 Alpha  occ. eigenvalues --   -0.65720  -0.64038  -0.63309  -0.63180  -0.62576
 Alpha  occ. eigenvalues --   -0.61821  -0.60784  -0.59657  -0.58876  -0.58741
 Alpha  occ. eigenvalues --   -0.57954  -0.57470  -0.57021  -0.56495  -0.55393
 Alpha  occ. eigenvalues --   -0.54168  -0.53472  -0.53287  -0.50583  -0.50433
 Alpha  occ. eigenvalues --   -0.48851  -0.44966  -0.37331  -0.37236  -0.33533
 Alpha  occ. eigenvalues --   -0.33445  -0.31209  -0.28979
 Alpha virt. eigenvalues --    0.17113   0.18725   0.19126   0.20625   0.21787
 Alpha virt. eigenvalues --    0.22178   0.22496   0.23129   0.23312   0.25485
 Alpha virt. eigenvalues --    0.25948   0.26902   0.27176   0.27791   0.28876
 Alpha virt. eigenvalues --    0.29843   0.31305   0.31840   0.32887   0.33515
 Alpha virt. eigenvalues --    0.35810   0.37738   0.38178   0.38962   0.41366
 Alpha virt. eigenvalues --    0.41694   0.42910   0.44152   0.45562   0.46382
 Alpha virt. eigenvalues --    0.47328   0.48022   0.48418   0.48669   0.49350
 Alpha virt. eigenvalues --    0.49809   0.51208   0.51698   0.52151   0.52583
 Alpha virt. eigenvalues --    0.52739   0.53405   0.53541   0.54083   0.54333
 Alpha virt. eigenvalues --    0.54915   0.55486   0.55907   0.56272   0.57132
 Alpha virt. eigenvalues --    0.57373   0.57817   0.57886   0.58526   0.59165
 Alpha virt. eigenvalues --    0.60018   0.60181   0.60865   0.61040   0.61681
 Alpha virt. eigenvalues --    0.62131   0.62779   0.62931   0.63293   0.64304
 Alpha virt. eigenvalues --    0.64703   0.65449   0.66116   0.66435   0.67878
 Alpha virt. eigenvalues --    0.68138   0.68259   0.69443   0.71134   0.71505
 Alpha virt. eigenvalues --    0.72462   0.73659   0.75149   0.75686   0.77498
 Alpha virt. eigenvalues --    0.79350   0.80731   0.83559   0.87068   0.92979
 Alpha virt. eigenvalues --    0.97127   0.98122   1.00332   1.00802   1.04321
 Alpha virt. eigenvalues --    1.08542   1.10319   1.12058   1.14484   1.15061
 Alpha virt. eigenvalues --    1.16237   1.19430   1.23594   1.26173   1.31568
 Alpha virt. eigenvalues --    1.33141   1.35760   1.37387   1.51568   1.52289
 Alpha virt. eigenvalues --    1.53709   1.54733   1.56402   1.62600   1.67849
 Alpha virt. eigenvalues --    1.70058   1.71847   1.72654   1.74038   1.75365
 Alpha virt. eigenvalues --    1.76254   1.78758   1.80345   1.81924   1.82858
 Alpha virt. eigenvalues --    1.85972   1.87699   1.90345   1.93847   1.94874
 Alpha virt. eigenvalues --    1.95471   1.98561   1.98913   1.99689   2.00493
 Alpha virt. eigenvalues --    2.01489   2.02556   2.03182   2.03294   2.04152
 Alpha virt. eigenvalues --    2.04722   2.05252   2.05730   2.06626   2.06849
 Alpha virt. eigenvalues --    2.07507   2.07588   2.08114   2.08471   2.09082
 Alpha virt. eigenvalues --    2.09571   2.10270   2.10486   2.10888   2.11996
 Alpha virt. eigenvalues --    2.13531   2.14257   2.14715   2.15809   2.16357
 Alpha virt. eigenvalues --    2.17498   2.17839   2.19068   2.19929   2.20467
 Alpha virt. eigenvalues --    2.20725   2.21663   2.22578   2.22683   2.24243
 Alpha virt. eigenvalues --    2.24481   2.25103   2.26932   2.27726   2.28658
 Alpha virt. eigenvalues --    2.29273   2.30885   2.32502   2.33908   2.34496
 Alpha virt. eigenvalues --    2.35411   2.37390   2.37984   2.40384   2.41122
 Alpha virt. eigenvalues --    2.43051   2.43306   2.44320   2.44949   2.45760
 Alpha virt. eigenvalues --    2.46378   2.47867   2.48441   2.50219   2.51526
 Alpha virt. eigenvalues --    2.51763   2.53415   2.55267   2.55880   2.56926
 Alpha virt. eigenvalues --    2.58510   2.59236   2.65523   2.65817   2.66533
 Alpha virt. eigenvalues --    2.69449   2.75250   2.77515   2.80155   2.80734
 Alpha virt. eigenvalues --    2.82977   2.84968   2.86931   2.88084   2.89273
 Alpha virt. eigenvalues --    2.90469   2.91236   2.96868   2.99457   3.01542
 Alpha virt. eigenvalues --    3.09994   3.12680   3.16236   3.21314   3.25313
 Alpha virt. eigenvalues --    3.26924   3.29489   3.29919   3.30781   3.34355
 Alpha virt. eigenvalues --    3.36622   3.42037   3.44390   3.63925   3.65941
 Alpha virt. eigenvalues --    3.70606   3.76620   3.78530   3.87856   3.93065
 Alpha virt. eigenvalues --    4.00304   4.00980   4.55041   4.76645   4.81463
 Alpha virt. eigenvalues --    4.83992   4.93006   5.03334   5.26788   5.33689
 Alpha virt. eigenvalues --    6.47936   6.55493   6.60413   6.95852   7.04837
 Alpha virt. eigenvalues --    7.28757   7.44330   7.95221   8.18651
          Condensed to atoms (all electrons):
               1          2          3          4          5          6
     1  S   13.372786   0.024348   0.018467   0.001651  -0.007184   0.023209
     2  F    0.024348   9.291456  -0.002685   0.009978   0.011680   0.011655
     3  F    0.018467  -0.002685   9.356972   0.013142   0.010779   0.009859
     4  F    0.001651   0.009978   0.013142   9.324521   0.003189   0.000279
     5  F   -0.007184   0.011680   0.010779   0.003189   9.345503  -0.000314
     6  F    0.023209   0.011655   0.009859   0.000279  -0.000314   9.223042
     7  F    0.003683   0.013090   0.008024  -0.000899  -0.000402  -0.000297
     8  F    0.018815   0.000202   0.000294   0.002780   0.000334   0.018806
     9  F    0.003077  -0.000353  -0.001307   0.001111   0.000068   0.011907
    10  F    0.000225  -0.000758  -0.001702   0.003148  -0.000057   0.007872
    11  O    0.183329  -0.003924  -0.003219   0.020588   0.005953  -0.013380
    12  O    0.314293  -0.000746  -0.000145   0.012723   0.016206  -0.000087
    13  O    0.329321  -0.003811  -0.001336   0.009316   0.014490   0.003054
    14  C    0.204603   0.179392   0.056663   0.043444  -0.024644  -0.010702
    15  C   -0.347137  -0.088355  -0.022812  -0.015488   0.007043  -0.010120
    16  C   -0.167536  -0.112515  -0.063778  -0.060530   0.033597   0.097200
    17  C    0.053052   0.050457   0.033500   0.038598  -0.001433  -0.019013
               7          8          9         10         11         12
     1  S    0.003683   0.018815   0.003077   0.000225   0.183329   0.314293
     2  F    0.013090   0.000202  -0.000353  -0.000758  -0.003924  -0.000746
     3  F    0.008024   0.000294  -0.001307  -0.001702  -0.003219  -0.000145
     4  F   -0.000899   0.002780   0.001111   0.003148   0.020588   0.012723
     5  F   -0.000402   0.000334   0.000068  -0.000057   0.005953   0.016206
     6  F   -0.000297   0.018806   0.011907   0.007872  -0.013380  -0.000087
     7  F    9.355545   0.008829   0.008980   0.015174   0.000908   0.000027
     8  F    0.008829   9.234685  -0.020376  -0.013241  -0.028850  -0.000299
     9  F    0.008980  -0.020376   9.318538  -0.013803  -0.000619  -0.000030
    10  F    0.015174  -0.013241  -0.013803   9.295052  -0.000279  -0.000038
    11  O    0.000908  -0.028850  -0.000619  -0.000279   8.815385  -0.101938
    12  O    0.000027  -0.000299  -0.000030  -0.000038  -0.101938   8.818262
    13  O    0.000029   0.000562   0.000070  -0.000027  -0.086231  -0.095722
    14  C   -0.012622  -0.006446   0.030224   0.029641  -0.010171   0.104029
    15  C    0.008903  -0.013075  -0.007837  -0.004447  -0.033184  -0.247948
    16  C   -0.019944  -0.081440  -0.084193  -0.069558   0.068102   0.006264
    17  C    0.029841   0.204812   0.183018   0.154439  -0.006686  -0.001574
              13         14         15         16         17
     1  S    0.329321   0.204603  -0.347137  -0.167536   0.053052
     2  F   -0.003811   0.179392  -0.088355  -0.112515   0.050457
     3  F   -0.001336   0.056663  -0.022812  -0.063778   0.033500
     4  F    0.009316   0.043444  -0.015488  -0.060530   0.038598
     5  F    0.014490  -0.024644   0.007043   0.033597  -0.001433
     6  F    0.003054  -0.010702  -0.010120   0.097200  -0.019013
     7  F    0.000029  -0.012622   0.008903  -0.019944   0.029841
     8  F    0.000562  -0.006446  -0.013075  -0.081440   0.204812
     9  F    0.000070   0.030224  -0.007837  -0.084193   0.183018
    10  F   -0.000027   0.029641  -0.004447  -0.069558   0.154439
    11  O   -0.086231  -0.010171  -0.033184   0.068102  -0.006686
    12  O   -0.095722   0.104029  -0.247948   0.006264  -0.001574
    13  O    8.756627   0.173086  -0.212383  -0.077611   0.006584
    14  C    0.173086  10.312837  -3.724705  -2.557239   0.430824
    15  C   -0.212383  -3.724705   9.880315   0.843679  -0.368753
    16  C   -0.077611  -2.557239   0.843679   8.824883  -1.246725
    17  C    0.006584   0.430824  -0.368753  -1.246725   5.249877
 Mulliken charges:
               1
     1  S    1.970997
     2  F   -0.379113
     3  F   -0.410717
     4  F   -0.407550
     5  F   -0.414807
     6  F   -0.352970
     7  F   -0.418869
     8  F   -0.326393
     9  F   -0.428476
    10  F   -0.401640
    11  O   -0.805783
    12  O   -0.823277
    13  O   -0.816017
    14  C    0.781786
    15  C    0.356302
    16  C    0.667345
    17  C    1.209180
 Sum of Mulliken charges =  -1.00000
 Mulliken charges with hydrogens summed into heavy atoms:
               1
     1  S    1.970997
     2  F   -0.379113
     3  F   -0.410717
     4  F   -0.407550
     5  F   -0.414807
     6  F   -0.352970
     7  F   -0.418869
     8  F   -0.326393
     9  F   -0.428476
    10  F   -0.401640
    11  O   -0.805783
    12  O   -0.823277
    13  O   -0.816017
    14  C    0.781786
    15  C    0.356302
    16  C    0.667345
    17  C    1.209180
 APT charges:
               1
     1  S    2.110146
     2  F   -0.464167
     3  F   -0.537682
     4  F   -0.519232
     5  F   -0.531224
     6  F   -0.438575
     7  F   -0.510368
     8  F   -0.472290
     9  F   -0.549294
    10  F   -0.505291
    11  O   -0.883858
    12  O   -0.908218
    13  O   -0.876431
    14  C    0.926981
    15  C    0.747054
    16  C    0.903772
    17  C    1.508676
 Sum of APT charges =  -1.00000
 APT charges with hydrogens summed into heavy atoms:
               1
     1  S    2.110146
     2  F   -0.464167
     3  F   -0.537682
     4  F   -0.519232
     5  F   -0.531224
     6  F   -0.438575
     7  F   -0.510368
     8  F   -0.472290
     9  F   -0.549294
    10  F   -0.505291
    11  O   -0.883858
    12  O   -0.908218
    13  O   -0.876431
    14  C    0.926981
    15  C    0.747054
    16  C    0.903772
    17  C    1.508676
 Electronic spatial extent (au):  <R**2>=           3348.3599
 Charge=             -1.0000 electrons
 Dipole moment (field-independent basis, Debye):
    X=              8.6207    Y=              2.6768    Z=              1.2633  Tot=              9.1147
 Quadrupole moment (field-independent basis, Debye-Ang):
   XX=           -135.8104   YY=           -113.8807   ZZ=           -111.3016
   XY=             -7.3116   XZ=             -1.3715   YZ=             -0.1141
 Traceless Quadrupole moment (field-independent basis, Debye-Ang):
   XX=            -15.4795   YY=              6.4502   ZZ=              9.0293
   XY=             -7.3116   XZ=             -1.3715   YZ=             -0.1141
 Octapole moment (field-independent basis, Debye-Ang**2):
  XXX=            148.0077  YYY=             34.2101  ZZZ=             15.5555  XYY=             34.7083
  XXY=             24.9870  XXZ=              5.0597  XZZ=             38.3401  YZZ=              6.9336
  YYZ=              4.1575  XYZ=             -5.5195
 Hexadecapole moment (field-independent basis, Debye-Ang**3):
 XXXX=          -2567.5349 YYYY=           -880.4089 ZZZZ=           -629.5032 XXXY=           -114.8660
 XXXZ=             21.3868 YYYX=            -83.8538 YYYZ=            -17.3418 ZZZX=            -19.2574
 ZZZY=            -10.3831 XXYY=           -542.5577 XXZZ=           -523.9729 YYZZ=           -246.9660
 XXYZ=             18.0966 YYXZ=              8.6196 ZZXY=            -23.1896
 N-N= 1.793392278671D+03 E-N=-7.574690356198D+03  KE= 1.663603233039D+03
  Exact polarizability:      95.105       2.431      85.208       0.048       0.372      83.073
 Approx polarizability:      69.605      -0.374      69.633      -0.294      -0.644      70.535
 No NMR shielding tensors so no spin-rotation constants.
 Leave Link  601 at Thu Sep 24 07:30:21 2026, MaxMem=  6442450944 cpu:               0.4 elap:               0.1
 (Enter /opt/g16/l701.exe)
 ... and contract with generalized density number  2.
 Compute integral second derivatives.
 Leave Link  701 at Thu Sep 24 07:30:21 2026, MaxMem=  6442450944 cpu:               0.6 elap:               0.1
 (Enter /opt/g16/l702.exe)
 L702 exits ... SP integral derivatives will be done elsewhere.
 Leave Link  702 at Thu Sep 24 07:30:21 2026, MaxMem=  6442450944 cpu:               0.0 elap:               0.0
 (Enter /opt/g16/l703.exe)
 Integral derivatives from FoFJK, PRISM(SPDF).
 Compute integral second derivatives, UseDBF=F ICtDFT=           0.
 Calling FoFJK, ICntrl=  10100127 FMM=F ISym2X=0 I1Cent= 0 IOpClX= 0 NMat=1 NMatS=1 NMatT=0.
 FoFJK:  IHMeth= 1 ICntrl=10100127 DoSepK=F KAlg= 0 I1Cent=           0 FoldK=F
 IRaf=         0 NMat=       1 IRICut=       1 DoRegI=T DoRafI=F ISym2E= 0 IDoP0=0 IntGTp=1.
 FoFCou: FMM=F IPFlag=           0 FMFlag=      100000 FMFlg1=         800
         NFxFlg=           0 DoJE=F BraDBF=F KetDBF=F FulRan=T
         wScrn=  0.000000 ICntrl=  10100127 IOpCl=  0 I1Cent=           0 NGrid=           0
         NMat0=    1 NMatS0=      1 NMatT0=    0 NMatD0=    1 NMtDS0=    0 NMtDT0=    0
 Symmetry not used in FoFCou.
 Leave Link  703 at Thu Sep 24 07:30:48 2026, MaxMem=  6442450944 cpu:             214.9 elap:              27.0
 (Enter /opt/g16/l716.exe)
 Dipole        = 3.33056309D+00 1.03378213D+00 4.74653313D-01
 Polarizability= 9.51049080D+01 2.43141301D+00 8.52081928D+01
                 4.81535794D-02 3.71638929D-01 8.30726305D+01
 Full mass-weighted force constant matrix:
 Low frequencies ---   -0.1462   -0.0020   -0.0014   -0.0007    0.0688    0.1184
 Low frequencies ---   32.2563   58.9978   78.7249
 Diagonal vibrational polarizability:
       46.1395639      23.5064171      24.2876073
 Harmonic frequencies (cm**-1), IR intensities (KM/Mole), Raman scattering
 activities (A**4/AMU), depolarization ratios for plane and unpolarized
 incident light, reduced masses (AMU), force constants (mDyne/A),
 and normal coordinates:
                      1                      2                      3
                      A                      A                      A
 Frequencies --     32.2563                58.9978                78.7249
 Red. masses --     17.5076                17.6297                18.2522
 Frc consts  --      0.0107                 0.0362                 0.0666
 IR Inten    --      0.2475                 0.1067                 1.6203
  Atom  AN      X      Y      Z        X      Y      Z        X      Y      Z
     1  16     0.06  -0.04  -0.05    -0.03   0.03   0.03    -0.15   0.11  -0.10
     2   9     0.02   0.13   0.20    -0.04  -0.01   0.01    -0.01  -0.10   0.00
     3   9     0.04  -0.11   0.19     0.03   0.01  -0.03    -0.00  -0.10   0.00
     4   9    -0.14   0.02   0.09     0.12  -0.10  -0.04     0.01  -0.27  -0.11
     5   9    -0.09  -0.00  -0.05     0.08  -0.05   0.14     0.10  -0.10   0.18
     6   9    -0.17   0.00   0.06    -0.08  -0.10   0.03     0.01  -0.28   0.13
     7   9    -0.10   0.01  -0.08    -0.07  -0.01  -0.14    -0.10  -0.05  -0.19
     8   9     0.02   0.12   0.21     0.14  -0.15  -0.33     0.24   0.12   0.29
     9   9    -0.15  -0.13  -0.24     0.24   0.33   0.11     0.13   0.07   0.08
    10   9     0.32   0.10  -0.21    -0.29  -0.05   0.15     0.22   0.29  -0.03
    11   8     0.02  -0.15   0.29    -0.19  -0.17   0.31    -0.23   0.07  -0.26
    12   8    -0.18   0.17  -0.26    -0.22   0.35  -0.10    -0.13   0.07  -0.09
    13   8     0.40  -0.14  -0.23     0.29  -0.06  -0.13    -0.16   0.28   0.02
    14   6    -0.01   0.01   0.11    -0.00  -0.01  -0.01    -0.00  -0.10   0.00
    15   6    -0.05  -0.01   0.04     0.04  -0.03   0.03    -0.01  -0.10   0.00
    16   6    -0.06   0.01   0.01    -0.03  -0.01  -0.03     0.01  -0.08   0.01
    17   6     0.03   0.03  -0.06     0.02   0.03  -0.02     0.16   0.11   0.09
                      4                      5                      6
                      A                      A                      A
 Frequencies --    113.8115               119.9931               141.0002
 Red. masses --     18.2766                18.1336                17.5435
 Frc consts  --      0.1395                 0.1538                 0.2055
 IR Inten    --      1.5762                 1.1299                 2.8458
  Atom  AN      X      Y      Z        X      Y      Z        X      Y      Z
     1  16     0.14   0.02  -0.04    -0.16  -0.01   0.05    -0.05  -0.13  -0.01
     2   9    -0.19  -0.04  -0.09    -0.06  -0.20  -0.18     0.18   0.32   0.15
     3   9    -0.05   0.23  -0.19    -0.20   0.13  -0.10     0.13  -0.14   0.17
     4   9     0.37  -0.15  -0.08     0.06  -0.12  -0.09     0.13  -0.11  -0.19
     5   9     0.10  -0.21   0.37     0.05  -0.07   0.05     0.07  -0.12  -0.13
     6   9    -0.08   0.05  -0.03     0.34   0.21  -0.08    -0.02   0.08  -0.03
     7   9     0.01  -0.04  -0.01     0.16   0.21   0.35     0.11   0.04  -0.15
     8   9    -0.28   0.11   0.17     0.00   0.07   0.01    -0.25   0.24   0.01
     9   9    -0.25  -0.19   0.10    -0.02  -0.10  -0.13    -0.04  -0.07   0.18
    10   9    -0.14   0.09  -0.01     0.27  -0.08  -0.04    -0.11   0.14   0.03
    11   8     0.10  -0.02  -0.04    -0.29  -0.16   0.17    -0.27  -0.29  -0.07
    12   8     0.05   0.00  -0.16    -0.20   0.26   0.07     0.10   0.13   0.24
    13   8     0.30   0.12  -0.02    -0.06  -0.11  -0.05    -0.17  -0.21  -0.03
    14   6    -0.05   0.08  -0.06    -0.03  -0.03  -0.06     0.12   0.08  -0.01
    15   6     0.12  -0.05   0.08     0.00  -0.07  -0.04     0.11  -0.07  -0.16
    16   6    -0.07   0.04  -0.02     0.14   0.10   0.07     0.08   0.11  -0.08
    17   6    -0.19   0.00   0.06     0.09  -0.00  -0.01    -0.06   0.12   0.03
                      7                      8                      9
                      A                      A                      A
 Frequencies --    172.7343               188.9037               221.7838
 Red. masses --     17.8307                17.2195                18.1548
 Frc consts  --      0.3135                 0.3620                 0.5261
 IR Inten    --      0.5122                 2.9518                 1.3161
  Atom  AN      X      Y      Z        X      Y      Z        X      Y      Z
     1  16     0.02  -0.02  -0.09     0.05  -0.06   0.01    -0.01  -0.03   0.06
     2   9     0.14   0.14  -0.10    -0.07  -0.16   0.00     0.13   0.12  -0.04
     3   9    -0.15   0.33   0.03    -0.04   0.13  -0.02    -0.07  -0.09   0.03
     4   9     0.19   0.02  -0.22     0.00   0.20   0.30     0.21   0.18  -0.00
     5   9    -0.12  -0.08  -0.00    -0.11  -0.12  -0.25    -0.17  -0.13  -0.15
     6   9    -0.32  -0.06   0.37    -0.02  -0.07   0.16    -0.09   0.19  -0.22
     7   9     0.01  -0.12   0.03    -0.02   0.09  -0.14     0.11  -0.17   0.26
     8   9     0.16  -0.16   0.04    -0.15   0.15  -0.17     0.31  -0.27   0.23
     9   9    -0.08   0.10  -0.18     0.04  -0.01  -0.00    -0.01   0.05  -0.03
    10   9     0.20  -0.23   0.12     0.12  -0.13   0.07    -0.20   0.26  -0.18
    11   8    -0.05  -0.06  -0.11    -0.30  -0.30  -0.29    -0.20  -0.16  -0.08
    12   8     0.15   0.08   0.09     0.03  -0.01  -0.00    -0.05   0.00   0.02
    13   8    -0.13  -0.12  -0.11     0.26   0.34   0.22     0.16   0.24   0.18
    14   6    -0.00   0.22   0.04     0.04  -0.02   0.06    -0.04   0.00  -0.06
    15   6     0.02   0.09  -0.12     0.09  -0.11   0.08     0.00  -0.03  -0.04
    16   6    -0.06   0.03   0.22     0.08   0.08   0.04    -0.10  -0.11  -0.04
    17   6     0.02  -0.05   0.09     0.07   0.06  -0.01    -0.07  -0.10  -0.03
                     10                     11                     12
                      A                      A                      A
 Frequencies --    238.1160               255.0356               275.6199
 Red. masses --     18.0087                17.8581                18.5968
 Frc consts  --      0.6016                 0.6844                 0.8324
 IR Inten    --      2.1217                 0.6324                 0.5299
  Atom  AN      X      Y      Z        X      Y      Z        X      Y      Z
     1  16    -0.10  -0.05   0.08     0.16   0.11   0.00    -0.08  -0.09  -0.11
     2   9     0.18   0.30  -0.07    -0.18   0.03   0.05    -0.39   0.11   0.23
     3   9    -0.05  -0.18   0.03    -0.02  -0.25   0.01     0.49   0.04  -0.25
     4   9     0.34   0.23  -0.14     0.02  -0.04  -0.12     0.09   0.20   0.15
     5   9    -0.12  -0.03   0.09    -0.12  -0.10  -0.13     0.09   0.10   0.06
     6   9     0.30  -0.28   0.03     0.28  -0.26  -0.04     0.13  -0.02  -0.03
     7   9    -0.11   0.09  -0.05    -0.28   0.14   0.11     0.06  -0.04   0.12
     8   9    -0.09   0.07  -0.04    -0.00  -0.06   0.09     0.10  -0.09   0.16
     9   9    -0.08   0.05  -0.06    -0.18   0.11  -0.12    -0.12   0.17  -0.10
    10   9     0.11  -0.16   0.11    -0.03  -0.08   0.06     0.02  -0.08   0.11
    11   8     0.03   0.06   0.16     0.05   0.03  -0.08    -0.16  -0.14  -0.19
    12   8    -0.29  -0.31  -0.20     0.36   0.40   0.30    -0.09  -0.07  -0.12
    13   8     0.03   0.12   0.14     0.12   0.04  -0.04    -0.14  -0.17  -0.14
    14   6    -0.09   0.05  -0.16    -0.13  -0.07  -0.07     0.02   0.06   0.00
    15   6    -0.09   0.06  -0.06    -0.00  -0.02  -0.08     0.07   0.06   0.08
    16   6    -0.01   0.01  -0.01    -0.12  -0.06  -0.00    -0.05   0.01   0.01
    17   6    -0.01   0.05   0.06    -0.10   0.00   0.06    -0.05   0.01   0.09
                     13                     14                     15
                      A                      A                      A
 Frequencies --    291.4490               314.7081               321.1986
 Red. masses --     18.3505                18.4439                18.5080
 Frc consts  --      0.9184                 1.0763                 1.1250
 IR Inten    --      0.4123                 0.6593                 0.3234
  Atom  AN      X      Y      Z        X      Y      Z        X      Y      Z
     1  16     0.02  -0.08   0.02     0.02   0.00   0.10     0.00  -0.02  -0.04
     2   9     0.20  -0.16  -0.16    -0.08   0.21   0.04     0.51  -0.10  -0.21
     3   9    -0.03  -0.13   0.05     0.06   0.16  -0.14     0.31   0.07  -0.11
     4   9    -0.05  -0.14  -0.04    -0.38  -0.33  -0.09    -0.19   0.04   0.19
     5   9     0.51   0.33  -0.11    -0.14  -0.11  -0.05    -0.28  -0.19   0.36
     6   9    -0.10  -0.01   0.12     0.16  -0.08  -0.00     0.10  -0.11   0.03
     7   9    -0.09   0.07   0.17     0.41  -0.30  -0.09    -0.10   0.05   0.14
     8   9    -0.07   0.05   0.08    -0.02   0.06   0.02    -0.09   0.07  -0.09
     9   9    -0.27   0.31  -0.24    -0.14   0.23  -0.18    -0.08   0.11  -0.13
    10   9    -0.12   0.03   0.06     0.00  -0.03   0.07    -0.12   0.15  -0.10
    11   8    -0.07  -0.14  -0.03     0.02  -0.01   0.18    -0.07  -0.06  -0.10
    12   8    -0.00  -0.19  -0.04    -0.01  -0.09   0.05     0.06   0.05   0.05
    13   8     0.13   0.06   0.08     0.13   0.19   0.19    -0.03  -0.11  -0.09
    14   6     0.05  -0.09  -0.03     0.01   0.11  -0.08     0.08   0.01   0.08
    15   6     0.08  -0.03  -0.04    -0.06  -0.04  -0.05    -0.07   0.07   0.13
    16   6    -0.08   0.02   0.08     0.06   0.05  -0.04    -0.02  -0.06   0.04
    17   6    -0.15   0.10   0.05    -0.06   0.07   0.03    -0.05   0.05  -0.06
                     16                     17                     18
                      A                      A                      A
 Frequencies --    339.0783               340.7813               369.1733
 Red. masses --     18.5674                18.0827                18.3581
 Frc consts  --      1.2578                 1.2373                 1.4741
 IR Inten    --      0.0342                 0.0899                 0.4576
  Atom  AN      X      Y      Z        X      Y      Z        X      Y      Z
     1  16     0.01  -0.01   0.06     0.03  -0.08  -0.00    -0.01   0.02   0.02
     2   9     0.09   0.02  -0.10     0.03   0.33   0.07    -0.09  -0.00   0.18
     3   9     0.40   0.00  -0.27    -0.19   0.28  -0.04     0.22   0.18  -0.08
     4   9    -0.12  -0.22  -0.21    -0.25  -0.07  -0.02     0.12  -0.16  -0.13
     5   9    -0.12  -0.04  -0.12     0.17   0.27   0.20    -0.03  -0.03  -0.32
     6   9    -0.22   0.27  -0.09     0.22  -0.17  -0.05    -0.02  -0.28   0.31
     7   9    -0.34   0.29  -0.01    -0.19   0.14  -0.02    -0.05   0.12   0.35
     8   9     0.07  -0.04   0.17     0.14  -0.20  -0.02    -0.05  -0.03  -0.26
     9   9     0.09  -0.08   0.17     0.07  -0.27   0.08     0.01  -0.17  -0.01
    10   9     0.13  -0.21   0.16    -0.06   0.05  -0.12    -0.12   0.29  -0.25
    11   8    -0.01  -0.05   0.14    -0.19  -0.24  -0.12     0.08   0.07   0.16
    12   8    -0.02  -0.11   0.01     0.12  -0.14   0.08    -0.09  -0.05  -0.09
    13   8     0.09   0.16   0.15     0.19   0.00   0.01    -0.10   0.08   0.09
    14   6     0.01   0.02  -0.06    -0.07   0.15  -0.01     0.08   0.03   0.11
    15   6    -0.03   0.02  -0.09    -0.07   0.13   0.01     0.09  -0.03  -0.06
    16   6    -0.07   0.03  -0.01    -0.02  -0.02  -0.03     0.00  -0.03   0.13
    17   6     0.05  -0.04   0.08     0.03  -0.11  -0.05    -0.00  -0.02  -0.10
                     19                     20                     21
                      A                      A                      A
 Frequencies --    383.0506               452.1853               479.7740
 Red. masses --     17.8246                17.7147                17.6653
 Frc consts  --      1.5409                 2.1341                 2.3958
 IR Inten    --      3.0327                 5.6408                 1.6644
  Atom  AN      X      Y      Z        X      Y      Z        X      Y      Z
     1  16     0.02  -0.01   0.00     0.02  -0.04   0.02    -0.02   0.05  -0.03
     2   9    -0.17   0.07  -0.10     0.17   0.31   0.09     0.08  -0.24   0.21
     3   9     0.04  -0.28  -0.10    -0.18   0.14  -0.24     0.03   0.30   0.17
     4   9    -0.06   0.08  -0.18    -0.03  -0.08   0.30     0.19  -0.10  -0.17
     5   9    -0.05   0.17   0.21     0.23  -0.16  -0.14    -0.15   0.20  -0.10
     6   9    -0.24  -0.05   0.05    -0.10  -0.09  -0.20     0.18   0.03  -0.28
     7   9     0.13  -0.20   0.36    -0.17  -0.11   0.22    -0.20  -0.26  -0.03
     8   9    -0.17   0.17  -0.22    -0.16   0.07   0.04    -0.22   0.05   0.06
     9   9     0.22   0.08   0.18     0.14   0.19   0.11     0.11   0.25   0.05
    10   9     0.28   0.04  -0.10     0.19  -0.11  -0.06     0.12  -0.05  -0.11
    11   8    -0.09  -0.08  -0.07     0.16   0.09  -0.10    -0.13  -0.05   0.08
    12   8     0.15  -0.08   0.12    -0.13   0.21  -0.07     0.08  -0.17   0.03
    13   8     0.20   0.02  -0.04    -0.13  -0.07   0.06     0.04   0.01  -0.08
    14   6    -0.17  -0.02  -0.14    -0.03  -0.06  -0.08     0.05  -0.01   0.29
    15   6    -0.17   0.13  -0.05     0.12  -0.22   0.06    -0.03   0.14   0.07
    16   6    -0.11  -0.08   0.02    -0.14  -0.15  -0.08    -0.11  -0.20   0.02
    17   6     0.06   0.05  -0.02    -0.03  -0.03  -0.01    -0.05  -0.07  -0.02
                     22                     23                     24
                      A                      A                      A
 Frequencies --    503.9183               524.2310               535.5968
 Red. masses --     17.5954                17.9279                17.9808
 Frc consts  --      2.6325                 2.9028                 3.0390
 IR Inten    --     28.6592                 7.1077                14.0759
  Atom  AN      X      Y      Z        X      Y      Z        X      Y      Z
     1  16     0.18   0.03  -0.23     0.15  -0.18   0.07    -0.14   0.15  -0.08
     2   9    -0.05  -0.00  -0.04    -0.03  -0.06  -0.12     0.05   0.06  -0.03
     3   9    -0.04  -0.03   0.06     0.09  -0.03   0.11    -0.01  -0.04  -0.07
     4   9    -0.11   0.15   0.02    -0.02  -0.06  -0.08     0.01   0.01   0.19
     5   9     0.09  -0.10   0.12    -0.04   0.14   0.03     0.12  -0.18  -0.09
     6   9    -0.00  -0.04  -0.05     0.15   0.14   0.01     0.07   0.13   0.02
     7   9    -0.03  -0.00   0.04    -0.08  -0.13  -0.13    -0.07  -0.05  -0.09
     8   9    -0.03  -0.00   0.03    -0.00  -0.24  -0.24     0.02  -0.27  -0.26
     9   9     0.04   0.04   0.02    -0.22   0.03   0.21    -0.28   0.04   0.22
    10   9     0.02  -0.03  -0.04     0.26   0.18  -0.03     0.29   0.20   0.01
    11   8    -0.05  -0.35   0.48     0.19  -0.12  -0.20    -0.15   0.12   0.21
    12   8     0.25   0.00  -0.24    -0.20   0.33  -0.19     0.19  -0.27   0.17
    13   8    -0.46   0.30   0.12    -0.15  -0.04   0.30     0.11   0.05  -0.27
    14   6     0.02   0.03  -0.02    -0.06   0.10   0.03    -0.01  -0.03  -0.05
    15   6     0.08   0.03  -0.09    -0.05   0.09   0.02     0.08  -0.15   0.01
    16   6    -0.02  -0.02  -0.02    -0.10   0.05   0.11    -0.06   0.05   0.08
    17   6    -0.01  -0.02  -0.01    -0.13   0.03   0.16    -0.14   0.04   0.19
                     25                     26                     27
                      A                      A                      A
 Frequencies --    578.2639               601.3199               629.1914
 Red. masses --     17.6799                19.0955                17.6835
 Frc consts  --      3.4832                 4.0681                 4.1246
 IR Inten    --      0.9946                93.9201                17.0687
  Atom  AN      X      Y      Z        X      Y      Z        X      Y      Z
     1  16     0.02  -0.03  -0.07     0.24   0.29   0.16     0.02   0.08   0.15
     2   9     0.13   0.01   0.20    -0.05   0.11  -0.24    -0.11  -0.09  -0.08
     3   9    -0.09   0.00  -0.22    -0.01  -0.08   0.10     0.11   0.18   0.32
     4   9     0.10  -0.04   0.01     0.13  -0.32   0.22    -0.24   0.24  -0.18
     5   9    -0.06   0.13  -0.01    -0.17   0.14  -0.13     0.21  -0.32   0.03
     6   9    -0.01   0.09  -0.14    -0.07  -0.11  -0.08    -0.07  -0.14  -0.26
     7   9    -0.12  -0.24   0.07     0.06   0.04   0.06    -0.12  -0.09   0.15
     8   9     0.22   0.27  -0.25     0.09   0.04  -0.02     0.12   0.10  -0.11
     9   9    -0.14  -0.28  -0.19    -0.04  -0.05   0.03    -0.08  -0.09  -0.01
    10   9    -0.04   0.16   0.43     0.02  -0.03   0.06     0.05   0.04   0.19
    11   8     0.02  -0.07   0.05    -0.31  -0.07  -0.06    -0.07   0.08  -0.09
    12   8     0.07   0.05  -0.01     0.03  -0.17  -0.26    -0.11  -0.09  -0.04
    13   8    -0.06   0.06   0.01    -0.17  -0.26  -0.05     0.07  -0.11   0.03
    14   6    -0.10  -0.18   0.05    -0.04   0.14  -0.08     0.16   0.18   0.01
    15   6    -0.11  -0.01   0.08     0.11   0.10   0.30     0.21   0.05  -0.26
    16   6    -0.07  -0.13   0.05    -0.05   0.03  -0.12    -0.09  -0.09  -0.12
    17   6     0.22   0.21   0.09    -0.00   0.06  -0.01     0.05   0.10   0.04
                     28                     29                     30
                      A                      A                      A
 Frequencies --    636.4925               654.2209               743.0118
 Red. masses --     19.2599                17.5550                17.2566
 Frc consts  --      4.5972                 4.4269                 5.6130
 IR Inten    --     79.7868                 5.5282                23.4435
  Atom  AN      X      Y      Z        X      Y      Z        X      Y      Z
     1  16     0.22   0.22   0.21     0.00  -0.03  -0.02     0.03   0.03   0.02
     2   9     0.10  -0.06   0.35     0.14  -0.17   0.28     0.08  -0.07   0.08
     3   9    -0.16  -0.09  -0.33    -0.10   0.07  -0.08     0.00  -0.01  -0.07
     4   9    -0.13   0.20  -0.23     0.02   0.03  -0.09    -0.02   0.05  -0.05
     5   9     0.05  -0.13   0.07    -0.12   0.10   0.07     0.06  -0.04  -0.01
     6   9     0.05   0.18   0.18    -0.26  -0.30  -0.25     0.12   0.05   0.14
     7   9    -0.04   0.01  -0.10     0.30   0.35   0.05    -0.03  -0.15   0.01
     8   9    -0.14  -0.10   0.02     0.09  -0.11  -0.04     0.39   0.30  -0.02
     9   9     0.02   0.08  -0.06    -0.27   0.08   0.19    -0.21  -0.01   0.33
    10   9    -0.00   0.09  -0.04     0.15  -0.03   0.05    -0.10  -0.37  -0.33
    11   8    -0.21  -0.03  -0.11     0.03  -0.03  -0.00    -0.03   0.00  -0.00
    12   8    -0.04  -0.09  -0.21     0.01   0.03   0.00     0.01  -0.01  -0.02
    13   8    -0.07  -0.22   0.06    -0.01   0.02   0.02    -0.01  -0.03   0.00
    14   6     0.07  -0.26  -0.03     0.12  -0.17   0.04    -0.10  -0.03   0.07
    15   6     0.00   0.04  -0.14    -0.07   0.04   0.01    -0.04  -0.05  -0.01
    16   6     0.14  -0.06   0.13     0.10   0.03  -0.34    -0.18   0.15   0.05
    17   6     0.02  -0.11   0.06    -0.13   0.10   0.03    -0.18   0.28  -0.25
                     31                     32                     33
                      A                      A                      A
 Frequencies --    911.6056              1001.2021              1028.9833
 Red. masses --     13.6338                14.0340                15.6779
 Frc consts  --      6.6754                 8.2885                 9.7803
 IR Inten    --    149.9156               126.6961                71.0726
  Atom  AN      X      Y      Z        X      Y      Z        X      Y      Z
     1  16    -0.05  -0.04  -0.01    -0.02  -0.02  -0.03    -0.12  -0.12  -0.09
     2   9    -0.10   0.04   0.02    -0.10   0.14  -0.12     0.03  -0.08   0.07
     3   9    -0.15  -0.10  -0.05     0.09   0.15   0.14    -0.07  -0.10  -0.09
     4   9    -0.03  -0.09   0.07     0.05   0.01   0.03    -0.00  -0.05   0.08
     5   9    -0.19   0.07   0.07    -0.01   0.06   0.03    -0.09   0.07   0.06
     6   9    -0.01   0.07   0.06    -0.05   0.04  -0.01     0.03  -0.02   0.01
     7   9    -0.16  -0.06   0.05    -0.07   0.02   0.01    -0.02  -0.05   0.03
     8   9     0.07   0.09  -0.03     0.04   0.09  -0.04    -0.02  -0.05   0.02
     9   9    -0.14   0.06   0.07    -0.18   0.09   0.08     0.11  -0.05  -0.04
    10   9    -0.03  -0.05  -0.08    -0.05  -0.04  -0.10     0.03   0.02   0.05
    11   8     0.09  -0.07  -0.02    -0.15   0.16   0.04    -0.27   0.36   0.09
    12   8    -0.10  -0.02   0.09     0.20   0.06  -0.16     0.31   0.08  -0.27
    13   8     0.00   0.07  -0.06     0.05  -0.13   0.19     0.13  -0.22   0.37
    14   6     0.50  -0.00  -0.19     0.10  -0.28  -0.11     0.13   0.18   0.05
    15   6     0.48   0.32  -0.08    -0.36  -0.28  -0.09     0.26   0.05  -0.26
    16   6     0.29  -0.20  -0.02     0.41  -0.30   0.06    -0.16   0.21  -0.07
    17   6     0.05  -0.05   0.03     0.19  -0.12   0.08    -0.14   0.09  -0.04
                     34                     35                     36
                      A                      A                      A
 Frequencies --   1086.1870              1132.4512              1152.8239
 Red. masses --     13.5763                13.3801                13.0922
 Frc consts  --      9.4371                10.1100                10.2515
 IR Inten    --     51.6375               141.3649                58.6767
  Atom  AN      X      Y      Z        X      Y      Z        X      Y      Z
     1  16     0.02   0.05   0.03     0.04  -0.03   0.05     0.04   0.01  -0.02
     2   9     0.01  -0.02   0.04     0.02  -0.09   0.11    -0.08   0.09  -0.15
     3   9     0.05   0.11   0.11     0.03   0.05   0.06    -0.07  -0.11  -0.14
     4   9    -0.01   0.04  -0.04     0.11  -0.15   0.26     0.05  -0.01   0.01
     5   9    -0.11   0.14   0.07     0.10  -0.13  -0.03     0.08  -0.08  -0.04
     6   9     0.01   0.02   0.10    -0.00   0.02   0.03     0.00  -0.04  -0.01
     7   9    -0.19  -0.20   0.12    -0.02  -0.02   0.01    -0.11  -0.10   0.06
     8   9    -0.02  -0.10   0.04     0.02   0.00  -0.01    -0.01  -0.03   0.04
     9   9     0.12  -0.06  -0.05     0.09  -0.04  -0.05    -0.05   0.03   0.05
    10   9     0.05   0.02   0.07    -0.00  -0.02  -0.04     0.05   0.06   0.13
    11   8     0.05  -0.07  -0.01    -0.02  -0.00  -0.01    -0.00  -0.01  -0.00
    12   8    -0.03  -0.01   0.03    -0.01  -0.00   0.00    -0.05  -0.01   0.04
    13   8    -0.03   0.03  -0.07    -0.02   0.05  -0.07     0.01  -0.00   0.01
    14   6     0.15  -0.20  -0.34     0.01  -0.03  -0.27     0.32   0.05   0.58
    15   6    -0.01  -0.40   0.03    -0.47   0.51  -0.42    -0.34   0.12  -0.03
    16   6     0.20   0.43  -0.34     0.04   0.05  -0.08     0.25   0.23  -0.14
    17   6    -0.25   0.18  -0.07    -0.17   0.10   0.17    -0.04  -0.10  -0.36
                     37                     38                     39
                      A                      A                      A
 Frequencies --   1168.3786              1198.5528              1210.7172
 Red. masses --     13.3210                13.2966                13.3049
 Frc consts  --     10.7141                11.2540                11.4907
 IR Inten    --      8.0148               174.5675               314.5096
  Atom  AN      X      Y      Z        X      Y      Z        X      Y      Z
     1  16    -0.05  -0.08  -0.08     0.06  -0.06  -0.02     0.02   0.04  -0.06
     2   9    -0.00   0.06  -0.03     0.06  -0.09   0.09    -0.04   0.07  -0.09
     3   9     0.01   0.06   0.07     0.01  -0.06  -0.03    -0.04  -0.05  -0.07
     4   9    -0.06   0.03  -0.16    -0.02  -0.01  -0.01    -0.01   0.04  -0.07
     5   9     0.11  -0.19  -0.12     0.02  -0.03  -0.02     0.01  -0.01  -0.01
     6   9     0.01   0.04   0.09    -0.11  -0.14  -0.23    -0.04  -0.04  -0.12
     7   9    -0.03  -0.04   0.02    -0.11  -0.12   0.03    -0.01   0.00  -0.01
     8   9    -0.01  -0.04   0.01    -0.01  -0.00   0.00     0.05   0.03  -0.06
     9   9     0.01  -0.01  -0.01    -0.08   0.04   0.03     0.17  -0.08  -0.13
    10   9     0.02   0.00   0.02    -0.05  -0.01  -0.08    -0.05  -0.09  -0.21
    11   8    -0.07   0.10   0.03    -0.07   0.10   0.02     0.01  -0.01  -0.00
    12   8     0.08   0.03  -0.05    -0.04  -0.01   0.04    -0.06  -0.02   0.06
    13   8     0.04  -0.05   0.10    -0.01   0.02  -0.03     0.02  -0.05   0.07
    14   6    -0.12  -0.35  -0.11    -0.31   0.22  -0.13     0.21  -0.01   0.29
    15   6     0.07   0.49   0.60     0.08   0.08   0.07    -0.05  -0.07   0.14
    16   6     0.11   0.02  -0.20     0.47   0.48   0.34     0.12   0.04   0.12
    17   6    -0.06   0.09  -0.04     0.22  -0.12   0.07    -0.30   0.27   0.68
                     40                     41                     42
                      A                      A                      A
 Frequencies --   1251.6149              1267.2447              1273.1083
 Red. masses --     16.0983                19.5786                15.3365
 Frc consts  --     14.8584                18.5248                14.6456
 IR Inten    --    325.8922               426.6949               160.2890
  Atom  AN      X      Y      Z        X      Y      Z        X      Y      Z
     1  16     0.25  -0.23   0.04    -0.16  -0.21   0.42    -0.24   0.17   0.08
     2   9    -0.02   0.03  -0.04    -0.01  -0.00  -0.02    -0.00   0.04  -0.05
     3   9    -0.02   0.00  -0.01    -0.02  -0.04  -0.04     0.01   0.02  -0.00
     4   9    -0.00   0.01  -0.01    -0.02   0.03  -0.07     0.02  -0.03   0.05
     5   9    -0.02   0.03   0.02     0.02  -0.02  -0.02    -0.01  -0.01   0.01
     6   9     0.02   0.04   0.05    -0.01  -0.01  -0.03    -0.01  -0.02  -0.02
     7   9    -0.00  -0.02   0.03    -0.01   0.01  -0.00    -0.02  -0.07   0.03
     8   9    -0.13  -0.19   0.05     0.04   0.05  -0.02    -0.13  -0.19   0.05
     9   9    -0.06  -0.01   0.01     0.03  -0.01  -0.02    -0.07  -0.00   0.02
    10   9    -0.06  -0.07  -0.09     0.01   0.00  -0.01    -0.07  -0.07  -0.10
    11   8    -0.27   0.32   0.07     0.02   0.01  -0.03     0.25  -0.29  -0.07
    12   8    -0.13  -0.02   0.10     0.42   0.12  -0.38     0.17   0.02  -0.15
    13   8    -0.09   0.16  -0.23    -0.12   0.28  -0.43     0.05  -0.07   0.08
    14   6     0.08  -0.04   0.12     0.10   0.13   0.09    -0.15  -0.18   0.19
    15   6     0.02  -0.06  -0.05    -0.04  -0.05   0.16     0.10   0.13  -0.19
    16   6    -0.12  -0.07  -0.18     0.09  -0.03   0.04     0.03   0.16  -0.10
    17   6     0.45   0.46   0.07    -0.16  -0.06   0.09     0.49   0.40   0.08
                     43                     44                     45
                      A                      A                      A
 Frequencies --   1289.8877              1319.4701              1392.1025
 Red. masses --     12.8797                12.3387                12.4579
 Frc consts  --     12.6258                12.6566                14.2246
 IR Inten    --    135.3452                29.1728                60.5289
  Atom  AN      X      Y      Z        X      Y      Z        X      Y      Z
     1  16    -0.06   0.06  -0.05    -0.00  -0.01   0.01    -0.01   0.01  -0.00
     2   9     0.03  -0.13   0.13    -0.05   0.06  -0.03    -0.02   0.01   0.01
     3   9    -0.06  -0.08  -0.04    -0.01   0.04   0.03     0.00  -0.01   0.00
     4   9    -0.00   0.02  -0.06     0.01   0.00  -0.02    -0.00  -0.00   0.00
     5   9     0.07  -0.06  -0.06    -0.01  -0.01   0.00    -0.00  -0.00  -0.00
     6   9     0.02   0.03   0.04    -0.01  -0.09  -0.15    -0.04  -0.02  -0.10
     7   9    -0.04  -0.02   0.03     0.06   0.02  -0.04     0.01   0.04  -0.03
     8   9    -0.05  -0.06   0.01    -0.02  -0.01   0.01    -0.05  -0.15   0.07
     9   9    -0.05   0.01   0.02     0.00  -0.01   0.02     0.07  -0.05  -0.01
    10   9    -0.03  -0.03  -0.04    -0.02   0.01  -0.00     0.05  -0.00   0.08
    11   8     0.06  -0.07  -0.00     0.00  -0.00  -0.00     0.01  -0.01  -0.00
    12   8     0.05   0.02  -0.02     0.02   0.01  -0.02     0.00  -0.00  -0.00
    13   8     0.03  -0.07   0.10    -0.00   0.01  -0.01     0.00  -0.01   0.01
    14   6     0.32   0.58  -0.30     0.47  -0.34  -0.19    -0.03   0.06  -0.08
    15   6    -0.35  -0.09   0.35    -0.12   0.05   0.09     0.01  -0.00   0.01
    16   6    -0.06  -0.10  -0.11    -0.42   0.33   0.48     0.27  -0.31   0.45
    17   6     0.25   0.12   0.03     0.15  -0.04  -0.09    -0.28   0.55  -0.41

 -------------------
 - Thermochemistry -
 -------------------
 Temperature   298.150 Kelvin.  Pressure   1.00000 Atm.
 Atom     1 has atomic number 16 and mass  31.97207
 Atom     2 has atomic number  9 and mass  18.99840
 Atom     3 has atomic number  9 and mass  18.99840
 Atom     4 has atomic number  9 and mass  18.99840
 Atom     5 has atomic number  9 and mass  18.99840
 Atom     6 has atomic number  9 and mass  18.99840
 Atom     7 has atomic number  9 and mass  18.99840
 Atom     8 has atomic number  9 and mass  18.99840
 Atom     9 has atomic number  9 and mass  18.99840
 Atom    10 has atomic number  9 and mass  18.99840
 Atom    11 has atomic number  8 and mass  15.99491
 Atom    12 has atomic number  8 and mass  15.99491
 Atom    13 has atomic number  8 and mass  15.99491
 Atom    14 has atomic number  6 and mass  12.00000
 Atom    15 has atomic number  6 and mass  12.00000
 Atom    16 has atomic number  6 and mass  12.00000
 Atom    17 has atomic number  6 and mass  12.00000
 Molecular mass:   298.94244 amu.
 Principal axes and moments of inertia in atomic units:
                           1         2         3
     Eigenvalues --  2566.793034868.569705262.82113
           X            0.99934  -0.02980   0.02069
           Y            0.03113   0.99722  -0.06766
           Z           -0.01862   0.06826   0.99749
 This molecule is an asymmetric top.
 Rotational symmetry number  1.
 Warning -- assumption of classical behavior for rotation
           may cause significant error
 Rotational temperatures (Kelvin)      0.03374     0.01779     0.01646
 Rotational constants (GHZ):           0.70311     0.37069     0.34292
 Zero-point vibrational energy     169145.7 (Joules/Mol)
                                   40.42679 (Kcal/Mol)
 Warning -- explicit consideration of  26 degrees of freedom as
           vibrations may cause significant error
 Vibrational temperatures:     46.41    84.88   113.27   163.75   172.64
          (Kelvin)            202.87   248.53   271.79   319.10   342.60
                              366.94   396.56   419.33   452.79   462.13
                              487.86   490.31   531.16   551.12   650.59
                              690.29   725.03   754.25   770.60   831.99
                              865.17   905.27   915.77   941.28  1069.03
                             1311.60  1440.51  1480.48  1562.78  1629.34
                             1658.66  1681.04  1724.45  1741.95  1800.79
                             1823.28  1831.72  1855.86  1898.42  2002.93
 
 Zero-point correction=                           0.064424 (Hartree/Particle)
 Thermal correction to Energy=                    0.079855
 Thermal correction to Enthalpy=                  0.080800
 Thermal correction to Gibbs Free Energy=         0.021178
 Sum of electronic and zero-point Energies=          -1671.277415
 Sum of electronic and thermal Energies=             -1671.261984
 Sum of electronic and thermal Enthalpies=           -1671.261040
 Sum of electronic and thermal Free Energies=        -1671.320661
 
                     E (Thermal)             CV                S
                      KCal/Mol        Cal/Mol-Kelvin    Cal/Mol-Kelvin
 Total                   50.110             55.143            125.484
 Electronic               0.000              0.000              0.000
 Translational            0.889              2.981             42.982
 Rotational               0.889              2.981             32.553
 Vibrational             48.333             49.182             49.949
 Vibration     1          0.594              1.983              5.686
 Vibration     2          0.596              1.974              4.490
 Vibration     3          0.600              1.963              3.922
 Vibration     4          0.607              1.938              3.203
 Vibration     5          0.609              1.933              3.100
 Vibration     6          0.615              1.912              2.790
 Vibration     7          0.626              1.876              2.406
 Vibration     8          0.633              1.855              2.239
 Vibration     9          0.648              1.808              1.944
 Vibration    10          0.656              1.782              1.817
 Vibration    11          0.665              1.754              1.696
 Vibration    12          0.677              1.718              1.561
 Vibration    13          0.687              1.690              1.466
 Vibration    14          0.702              1.646              1.337
 Vibration    15          0.707              1.633              1.304
 Vibration    16          0.719              1.597              1.216
 Vibration    17          0.720              1.594              1.208
 Vibration    18          0.741              1.536              1.083
 Vibration    19          0.752              1.506              1.027
 Vibration    20          0.811              1.356              0.789
 Vibration    21          0.836              1.295              0.711
 Vibration    22          0.859              1.241              0.648
 Vibration    23          0.879              1.196              0.600
 Vibration    24          0.891              1.171              0.575
 Vibration    25          0.935              1.078              0.489
 Vibration    26          0.960              1.029              0.447
                       Q            Log10(Q)             Ln(Q)
 Total Bot       0.181455D-09         -9.741230        -22.430011
 Total V=0       0.779499D+20         19.891816         45.802599
 Vib (Bot)       0.307669D-24        -24.511916        -56.440773
 Vib (Bot)    1  0.641783D+01          0.807388          1.859080
 Vib (Bot)    2  0.350058D+01          0.544140          1.252928
 Vib (Bot)    3  0.261650D+01          0.417720          0.961837
 Vib (Bot)    4  0.179809D+01          0.254810          0.586723
 Vib (Bot)    5  0.170308D+01          0.231235          0.532437
 Vib (Bot)    6  0.144170D+01          0.158876          0.365825
 Vib (Bot)    7  0.116563D+01          0.066561          0.153263
 Vib (Bot)    8  0.105990D+01          0.025266          0.058178
 Vib (Bot)    9  0.891206D+00         -0.050022         -0.115179
 Vib (Bot)   10  0.824171D+00         -0.083983         -0.193377
 Vib (Bot)   11  0.763430D+00         -0.117231         -0.269933
 Vib (Bot)   12  0.699162D+00         -0.155422         -0.357872
 Vib (Bot)   13  0.655626D+00         -0.183344         -0.422164
 Vib (Bot)   14  0.599200D+00         -0.222428         -0.512160
 Vib (Bot)   15  0.584832D+00         -0.232969         -0.536430
 Vib (Bot)   16  0.547935D+00         -0.261271         -0.601599
 Vib (Bot)   17  0.544610D+00         -0.263914         -0.607685
 Vib (Bot)   18  0.493431D+00         -0.306774         -0.706373
 Vib (Bot)   19  0.471005D+00         -0.326974         -0.752886
 Vib (Bot)   20  0.378567D+00         -0.421857         -0.971362
 Vib (Bot)   21  0.348662D+00         -0.457596         -1.053654
 Vib (Bot)   22  0.325014D+00         -0.488098         -1.123888
 Vib (Bot)   23  0.306709D+00         -0.513273         -1.181855
 Vib (Bot)   24  0.297040D+00         -0.527185         -1.213889
 Vib (Bot)   25  0.263974D+00         -0.578439         -1.331904
 Vib (Bot)   26  0.247982D+00         -0.605579         -1.394398
 Vib (V=0)       0.132169D+06          5.121130         11.791836
 Vib (V=0)    1  0.693728D+01          0.841189          1.936909
 Vib (V=0)    2  0.403611D+01          0.605963          1.395281
 Vib (V=0)    3  0.316384D+01          0.500215          1.151788
 Vib (V=0)    4  0.236631D+01          0.374072          0.861332
 Vib (V=0)    5  0.227496D+01          0.356973          0.821962
 Vib (V=0)    6  0.202595D+01          0.306628          0.706036
 Vib (V=0)    7  0.176834D+01          0.247567          0.570044
 Vib (V=0)    8  0.167192D+01          0.223215          0.513972
 Vib (V=0)    9  0.152188D+01          0.182382          0.419950
 Vib (V=0)   10  0.146398D+01          0.165535          0.381159
 Vib (V=0)   11  0.141259D+01          0.150017          0.345427
 Vib (V=0)   12  0.135955D+01          0.133396          0.307155
 Vib (V=0)   13  0.132453D+01          0.122061          0.281056
 Vib (V=0)   14  0.128041D+01          0.107349          0.247181
 Vib (V=0)   15  0.126943D+01          0.103610          0.238571
 Vib (V=0)   16  0.124178D+01          0.094043          0.216543
 Vib (V=0)   17  0.123932D+01          0.093185          0.214566
 Vib (V=0)   18  0.120248D+01          0.080077          0.184384
 Vib (V=0)   19  0.118691D+01          0.074418          0.171354
 Vib (V=0)   20  0.112715D+01          0.051980          0.119689
 Vib (V=0)   21  0.110956D+01          0.045151          0.103965
 Vib (V=0)   22  0.109635D+01          0.039949          0.091987
 Vib (V=0)   23  0.108658D+01          0.036060          0.083031
 Vib (V=0)   24  0.108158D+01          0.034058          0.078421
 Vib (V=0)   25  0.106540D+01          0.027515          0.063355
 Vib (V=0)   26  0.105812D+01          0.024534          0.056491
 Electronic      0.100000D+01          0.000000          0.000000
 Translational   0.203159D+09          8.307835         19.129498
 Rotational      0.290303D+07          6.462851         14.881264
 
                                          PFBS_ani GEO_A frozen reference harmoni
 c frequency
                                                             IR Spectrum
 
     1      1  1111   11  11 1   1     1 1                                                                                           
     3      3  2222   21  11 1   0     0 0       9               7       666  6 5   55 5 4 4      33 3333 22 2 22  1 1  111          
     9      1  9765   19  65 3   8     2 0       1               4       532  0 7   32 0 8 5      86 4321 97 5 32  8 7  421  7 5  3  
     2      9  0372   19  83 2   6     9 1       2               3       469  1 8   64 4 0 2      39 1915 16 5 82  9 3  104  9 9  2  
 
     X      X  XXXX   XX  XX X   X     X X       X               X       XXX  X X   XX X X X      XX X XX XX X XX  X X  XXX  X X  X  
     X         XXXX   XX   X X   X     X X       X                        X   X                                                      
     X         XXXX   XX   X X         X X       X                        X   X                                                      
               XXXX   XX     X           X       X                        X   X                                                      
               XXXX   XX     X           X       X                                                                                   
               XXXX   XX     X           X       X                                                                                   
                XXX   XX     X                   X                                                                                   
                XXX   XX                                                                                                             
                 XX   X                                                                                                              
                 XX   X                                                                                                              
                 XX   X                                                                                                              
                 XX   X                                                                                                              
                 XX   X                                                                                                              
                 XX   X                                                                                                              
                 XX   X                                                                                                              
                 X                                                                                                                   
                 X                                                                                                                   
                 X                                                                                                                   
                 X                                                                                                                   
                 X                                                                                                                   
 
 -------------------------------------------------------------------
 Center     Atomic                   Forces (Hartrees/Bohr)
 Number     Number              X              Y              Z
 -------------------------------------------------------------------
      1       16          -0.000000310    0.000000108   -0.000000096
      2        9           0.000000096   -0.000000168    0.000000332
      3        9           0.000000104   -0.000000018   -0.000000099
      4        9          -0.000000201    0.000000125   -0.000000340
      5        9          -0.000000265    0.000000284    0.000000128
      6        9          -0.000000014   -0.000000081   -0.000000126
      7        9           0.000000234    0.000000141   -0.000000215
      8        9           0.000000028    0.000000142   -0.000000001
      9        9          -0.000000099    0.000000077    0.000000036
     10        9           0.000000178    0.000000195    0.000000395
     11        8           0.000000043    0.000000056   -0.000000106
     12        8           0.000000137    0.000000133   -0.000000101
     13        8           0.000000140   -0.000000289    0.000000247
     14        6          -0.000000125    0.000000381   -0.000000297
     15        6           0.000000123   -0.000000591    0.000000350
     16        6           0.000000096   -0.000000226    0.000000436
     17        6          -0.000000163   -0.000000269   -0.000000544
 -------------------------------------------------------------------
 Cartesian Forces:  Max     0.000000591 RMS     0.000000228
 Z-matrix is all fixed cartesians, so copy forces.
 Leave Link  716 at Thu Sep 24 07:30:48 2026, MaxMem=  6442450944 cpu:               0.1 elap:               0.0
 (Enter /opt/g16/l103.exe)

 GradGradGradGradGradGradGradGradGradGradGradGradGradGradGradGradGradGrad
 Berny optimization.
 Search for a local minimum.
 Step number   1 out of a maximum of    2
 All quantities printed in internal units (Hartrees-Bohrs-Radians)
 Second derivative matrix not updated -- analytic derivatives used.
 ITU=  0
     Eigenvalues ---    0.00069   0.00234   0.00428   0.00895   0.00988
     Eigenvalues ---    0.01323   0.02016   0.02335   0.03391   0.03863
     Eigenvalues ---    0.04409   0.05327   0.05898   0.06889   0.07231
     Eigenvalues ---    0.07873   0.08123   0.09399   0.10040   0.13742
     Eigenvalues ---    0.15434   0.17154   0.18747   0.19619   0.22277
     Eigenvalues ---    0.24524   0.25983   0.28093   0.31780   0.36216
     Eigenvalues ---    0.45885   0.54631   0.62818   0.64564   0.66960
     Eigenvalues ---    0.69531   0.73169   0.76102   0.77438   0.82356
     Eigenvalues ---    0.82949   0.85398   0.94736   1.38379   1.39859
 Angle between quadratic step and forces=  85.54 degrees.
 Linear search not attempted -- first point.
 B after Tr=     0.000000   -0.000000   -0.000000
         Rot=    1.000000   -0.000000   -0.000000   -0.000000 Ang=   0.00 deg.
 Variable       Old X    -DE/DX   Delta X   Delta X   Delta X     New X
                                 (Linear)    (Quad)   (Total)
    X1       -4.20131  -0.00000   0.00000   0.00000   0.00000  -4.20131
    Y1       -1.52050   0.00000   0.00000  -0.00000  -0.00000  -1.52051
    Z1       -0.58528  -0.00000   0.00000  -0.00000  -0.00000  -0.58528
    X2       -0.77752   0.00000   0.00000   0.00000   0.00000  -0.77752
    Y2        3.58030  -0.00000   0.00000   0.00001   0.00001   3.58031
    Z2       -1.93209   0.00000   0.00000   0.00002   0.00002  -1.93207
    X3        1.17118   0.00000   0.00000   0.00000   0.00000   1.17118
    Y3        3.59633  -0.00000   0.00000  -0.00001  -0.00001   3.59632
    Z3        1.75140  -0.00000   0.00000   0.00001   0.00001   1.75141
    X4       -1.22435  -0.00000   0.00000  -0.00001  -0.00001  -1.22437
    Y4       -0.44349   0.00000   0.00000  -0.00000  -0.00000  -0.44349
    Z4        3.34786  -0.00000   0.00000   0.00001   0.00001   3.34786
    X5       -3.67576  -0.00000   0.00000  -0.00001  -0.00001  -3.67576
    Y5        2.69651   0.00000   0.00000  -0.00000  -0.00000   2.69651
    Z5        2.08993   0.00000   0.00000  -0.00000  -0.00000   2.08993
    X6        1.48190  -0.00000   0.00000  -0.00001  -0.00001   1.48189
    Y6       -0.71911  -0.00000   0.00000  -0.00000  -0.00000  -0.71912
    Z6       -3.30338  -0.00000   0.00000   0.00001   0.00001  -3.30337
    X7        4.03130   0.00000   0.00000  -0.00001  -0.00001   4.03130
    Y7        2.28574   0.00000   0.00000   0.00000   0.00000   2.28574
    Z7       -1.96406  -0.00000   0.00000  -0.00001  -0.00001  -1.96407
    X8        2.40445   0.00000   0.00000   0.00000   0.00000   2.40445
    Y8       -3.37301   0.00000   0.00000   0.00001   0.00001  -3.37300
    Z8        1.12952  -0.00000   0.00000   0.00002   0.00002   1.12953
    X9        5.78506  -0.00000   0.00000  -0.00001  -0.00001   5.78505
    Y9       -2.18569   0.00000   0.00000  -0.00001  -0.00001  -2.18570
    Z9       -0.89312   0.00000   0.00000  -0.00002  -0.00002  -0.89313
   X10        4.64499   0.00000   0.00000   0.00003   0.00003   4.64501
   Y10       -0.20424   0.00000   0.00000   0.00001   0.00001  -0.20423
   Z10        2.54899   0.00000   0.00000  -0.00001  -0.00001   2.54898
   X11       -2.40952   0.00000   0.00000  -0.00000  -0.00000  -2.40952
   Y11       -3.62436   0.00000   0.00000  -0.00001  -0.00001  -3.62437
   Z11       -1.04438  -0.00000   0.00000   0.00002   0.00002  -1.04437
   X12       -6.24995   0.00000   0.00000  -0.00001  -0.00001  -6.24997
   Y12       -2.04001   0.00000   0.00000   0.00001   0.00001  -2.04000
   Z12        1.24512  -0.00000   0.00000  -0.00002  -0.00002   1.24510
   X13       -4.90168   0.00000   0.00000   0.00003   0.00003  -4.90165
   Y13       -0.00455  -0.00000   0.00000  -0.00001  -0.00001  -0.00456
   Z13       -2.83195   0.00000   0.00000  -0.00002  -0.00002  -2.83197
   X14        0.07477  -0.00000   0.00000  -0.00000  -0.00000   0.07477
   Y14        2.06193   0.00000   0.00000   0.00000   0.00000   2.06194
   Z14       -0.04294  -0.00000   0.00000   0.00001   0.00001  -0.04293
   X15       -2.19196   0.00000   0.00000  -0.00000  -0.00000  -2.19196
   Y15        0.74571  -0.00000   0.00000  -0.00000  -0.00000   0.74571
   Z15        1.24874   0.00000   0.00000   0.00000   0.00000   1.24874
   X16        2.27645   0.00000   0.00000  -0.00000  -0.00000   2.27644
   Y16        0.51618  -0.00000   0.00000   0.00000   0.00000   0.51618
   Z16       -1.21892   0.00000   0.00000   0.00000   0.00000  -1.21892
   X17        3.76197  -0.00000   0.00000   0.00000   0.00000   3.76198
   Y17       -1.36793  -0.00000   0.00000   0.00000   0.00000  -1.36793
   Z17        0.45476  -0.00000   0.00000  -0.00000  -0.00000   0.45475
         Item               Value     Threshold  Converged?
 Maximum Force            0.000001     0.000450     YES
 RMS     Force            0.000000     0.000300     YES
 Maximum Displacement     0.000026     0.001800     YES
 RMS     Displacement     0.000010     0.001200     YES
 Predicted change in Energy=-4.596764D-12
 Optimization completed.
    -- Stationary point found.
 GradGradGradGradGradGradGradGradGradGradGradGradGradGradGradGradGradGrad

 Leave Link  103 at Thu Sep 24 07:30:48 2026, MaxMem=  6442450944 cpu:               0.0 elap:               0.0
 (Enter /opt/g16/l9999.exe)

 ----------------------------------------------------------------------

 Electric dipole moment (input orientation):
 (Debye = 10**-18 statcoulomb cm , SI units = C m)
                  (au)            (Debye)         (10**-30 SI)
   Tot        0.351947D+01      0.894559D+01      0.298393D+02
   x          0.333056D+01      0.846545D+01      0.282377D+02
   y          0.103378D+01      0.262761D+01      0.876477D+01
   z          0.474653D+00      0.120645D+01      0.402428D+01

 Dipole polarizability, Alpha (input orientation).
 (esu units = cm**3 , SI units = C**2 m**2 J**-1)
 Alpha(0;0):
               (au)            (10**-24 esu)      (10**-40 SI)
   iso        0.877952D+02      0.130099D+02      0.144755D+02
   aniso      0.119079D+02      0.176456D+01      0.196334D+01
   xx         0.951049D+02      0.140931D+02      0.156807D+02
   yx         0.243141D+01      0.360298D+00      0.400886D+00
   yy         0.852082D+02      0.126266D+02      0.140489D+02
   zx         0.481536D-01      0.713562D-02      0.793945D-02
   zy         0.371639D+00      0.550712D-01      0.612750D-01
   zz         0.830726D+02      0.123101D+02      0.136968D+02

 ----------------------------------------------------------------------

 Dipole orientation:
    16          0.04026860         -0.20394746         -4.50136735
     9          0.78747723          4.06606110          0.05529081
     9         -2.29126386          2.52161436          2.40087694
     9         -3.31774286         -1.09326544         -0.83739693
     9         -3.41340170          2.77794352         -2.40455147
     9          3.61472345         -0.05710109          0.74562073
     9          2.14894858          1.70147524          4.22143980
     9          0.26435044         -4.03728239          1.43695995
     9          2.60054203         -3.17413759          4.71209156
     9         -1.38257036         -2.07514677          4.67944838
     8          1.36790964         -2.45187110         -3.48563647
     8         -1.99667400         -0.71982755         -6.34578869
     8          1.64734534          2.02822014         -5.02185421
     6         -0.44863664          1.89947254          0.67062625
     6         -1.82662546          0.85910435         -1.68685687
     6          1.50714957          0.27740000          2.14149082
     6          0.69806745         -2.31894198          3.21957675

 Electric dipole moment (dipole orientation):
 (Debye = 10**-18 statcoulomb cm , SI units = C m)
                  (au)            (Debye)         (10**-30 SI)
   Tot        0.351947D+01      0.894559D+01      0.298393D+02
   x          0.000000D+00      0.000000D+00      0.000000D+00
   y          0.000000D+00      0.000000D+00      0.000000D+00
   z          0.351947D+01      0.894559D+01      0.298393D+02

 Dipole polarizability, Alpha (dipole orientation).
 (esu units = cm**3 , SI units = C**2 m**2 J**-1)
 Alpha(0;0):
               (au)            (10**-24 esu)      (10**-40 SI)
   iso        0.877952D+02      0.130099D+02      0.144755D+02
   aniso      0.119079D+02      0.176456D+01      0.196334D+01
   xx         0.836378D+02      0.123938D+02      0.137900D+02
   yx        -0.775214D+00     -0.114875D+00     -0.127816D+00
   yy         0.843224D+02      0.124953D+02      0.139029D+02
   zx         0.167737D+01      0.248560D+00      0.276560D+00
   zy        -0.259009D+00     -0.383811D-01     -0.427048D-01
   zz         0.954256D+02      0.141406D+02      0.157336D+02

 ----------------------------------------------------------------------
 Unable to Open any file for archive entry.
 1\1\GINC-MASTER\Freq\RMP2-FC\6-31+G(d)\C4F9O3S1(1-)\LS\24-Sep-2026\0\\
 #P MP2/6-31+G(d) Freq SCF=Tight NoSymm\\PFBS_ani GEO_A frozen referenc
 e harmonic frequency\\-1,1\S,-2.2232398296,-0.804615756,-0.3097160649\
 F,-0.4114461799,1.8946117712,-1.0224167803\F,0.6197603718,1.9030961332
 ,0.9267991218\F,-0.6479001916,-0.2346863932,1.771610068\F,-1.945126205
 1,1.4269320379,1.1059421602\F,0.7841864831,-0.3805389614,-1.7480710689
 \F,2.133273276,1.2095635708,-1.0393354488\F,1.2723790062,-1.7849210804
 ,0.5977137453\F,3.0613205218,-1.1566160715,-0.4726166233\F,2.458020238
 2,-0.1080781951,1.34886976\O,-1.2750644665,-1.9179277174,-0.5526645366
 \O,-3.3073331198,-1.0795289763,0.6588868029\O,-2.5938573832,-0.0024071
 552,-1.4986047511\C,0.0395680856,1.0911289971,-0.0227209475\C,-1.15993
 4306,0.3946115631,0.6608036265\C,1.2046440458,0.2731529814,-0.64502661
 01\C,1.9907496531,-0.723876748,0.2406475468\\Version=ES64L-G16RevC.02\
 HF=-1668.5331769\MP2=-1671.3418391\RMSD=3.680e-09\RMSF=2.275e-07\ZeroP
 oint=0.0644242\Thermal=0.0798553\ETot=-1671.2619838\HTot=-1671.2610396
 \GTot=-1671.320661\Dipole=3.1401373,0.9589959,0.4554193\DipoleDeriv=2.
 3005403,-0.0792582,-0.1763398,-0.0678164,1.9889495,-0.1950101,-0.06625
 84,-0.1078051,2.0409482,-0.3813396,0.0747605,-0.0890422,0.1448013,-0.5
 062654,0.2848858,-0.0996353,0.2131569,-0.5048947,-0.5188561,-0.2006971
 ,-0.1668564,-0.265264,-0.5743461,-0.3067135,-0.1562624,-0.2220338,-0.5
 198437,-0.4583245,0.0593564,-0.1990991,0.0711647,-0.3520444,0.136361,-
 0.2948117,0.1861103,-0.7473278,-0.4980546,0.2332247,0.1167011,0.223954
 6,-0.7190646,-0.2164083,0.162784,-0.2862866,-0.3765533,-0.3663752,-0.0
 554252,-0.0579514,-0.077965,-0.3554616,-0.1478136,-0.1554399,-0.238484
 ,-0.5938872,-0.6642713,-0.2653285,0.1171264,-0.2735103,-0.5398462,0.10
 38557,0.2022993,0.1736912,-0.3269872,-0.4962712,-0.1229972,0.0334484,-
 0.2745985,-0.6207648,0.1367645,0.0970857,0.1617698,-0.2998352,-0.81789
 09,0.2225429,0.2657724,0.2628373,-0.3880932,-0.1097444,0.2245575,-0.06
 70697,-0.4418967,-0.4315137,-0.0846495,-0.2272208,-0.0388437,-0.391156
 9,-0.1507438,-0.2060543,-0.2209905,-0.6932026,-0.9356711,0.3273486,0.1
 114151,0.2178332,-1.0949096,-0.1463447,0.0429059,-0.1159226,-0.6209921
 ,-1.1916707,-0.2266612,0.2869854,-0.1738927,-0.6695382,0.0796984,0.429
 0651,0.1556845,-0.863446,-0.7698929,0.049233,-0.1819868,0.1280701,-0.7
 422333,0.324233,-0.2620926,0.2051741,-1.117168,0.8828703,0.0717849,0.3
 206923,0.0386918,0.9506085,0.0364774,0.0195683,-0.0538743,0.9474652,0.
 6449778,-0.3897764,-0.023616,-0.2368171,0.7635773,-0.0661153,0.1354823
 ,0.0800416,0.8326083,0.992091,0.3472867,-0.0064672,0.2595464,0.8541482
 ,0.0863607,-0.000803,0.0540055,0.8650774,1.7096525,0.0392558,-0.123561
 2,0.0618084,1.3964408,0.1502574,-0.0723904,0.0828327,1.4199353\Polar=9
 5.104908,2.431413,85.2081928,0.0481536,0.3716389,83.0726305\PG=C01 [X(
 C4F9O3S1)]\NImag=0\\0.78171764,-0.17101348,0.73008850,-0.14289772,-0.1
 6092429,0.80835864,-0.00228646,0.00428768,-0.00479538,0.11190621,0.003
 14270,0.00018237,0.00294335,-0.06763529,0.18285317,-0.00342738,-0.0000
 6821,-0.00954773,0.08418486,-0.13987070,0.24620169,0.00187484,0.008115
 20,0.00998585,-0.00753030,-0.00219246,-0.03361562,0.12307594,0.0042297
 5,0.00506832,0.00813529,0.00390887,0.02452380,0.00656507,0.07085100,0.
 17258462,0.00142693,0.00215952,-0.00188250,-0.03385680,-0.00701241,-0.
 05437234,0.08033986,0.11889677,0.21442854,-0.00327583,0.01946858,-0.01
 515613,-0.00145902,-0.00540210,0.00475690,0.00210003,-0.00101230,0.004
 48841,0.09912830,-0.00084576,-0.00131713,-0.00609591,-0.00358307,-0.00
 371469,0.00510373,0.00107186,0.00126167,0.00242523,-0.05267056,0.13754
 921,-0.00028892,0.03105431,-0.02170171,0.00638740,0.00632600,-0.004771
 30,0.00133719,-0.00099012,0.00531868,0.08006092,-0.11559068,0.25773574
 ,-0.00561855,-0.00199465,-0.00267672,0.00221622,-0.00208088,-0.0003071
 2,0.00200406,0.00234706,0.00191915,-0.01758632,0.03383610,-0.01186670,
 0.17726133,0.03318511,-0.01885348,-0.00313819,-0.00334749,0.00452691,0
 .00017732,-0.00325907,0.00523436,0.00314220,0.03356337,-0.03439115,0.0
 1446290,-0.13235684,0.22693757,0.02206281,-0.01118134,-0.00360834,0.00
 134639,-0.00153065,0.00149632,-0.00186150,0.00269757,0.00323517,-0.021
 09198,0.02772627,0.01585449,-0.05972848,0.06844349,0.09761355,0.002078
 83,-0.00301434,-0.00213478,0.00137616,-0.00017768,0.00266219,-0.001134
 65,0.00617748,0.00437141,0.00040754,-0.00002620,0.00074383,0.00040537,
 0.00022420,0.00011550,0.10638571,0.00236921,-0.00609938,-0.00282727,-0
 .00084959,0.00187365,-0.00145783,0.00338414,-0.00473193,-0.00505442,0.
 00021103,0.00055604,-0.00008604,0.00123930,0.00068697,-0.00023913,0.06
 004632,0.15165468,0.00099760,-0.00137527,-0.00589640,0.00165448,0.0004
 7947,0.00538335,0.00505877,-0.00644909,-0.00446849,0.00104495,0.000166
 08,0.00083058,0.00140823,0.00033399,-0.00003097,0.09357594,0.13819460,
 0.30140387,0.00333770,0.00137091,0.00101547,0.00224815,-0.00099197,0.0
 0118257,0.00188127,0.00171747,0.00008960,0.00053686,-0.00110956,0.0013
 5734,-0.00446291,0.00089773,0.00275822,-0.01913678,-0.03532564,-0.0160
 4238,0.20497370,0.00270663,-0.00269082,-0.00120971,0.00299406,0.004298
 04,-0.00286931,0.00548105,0.00401459,-0.00128384,-0.00025262,0.0005932
 8,-0.00020950,-0.00044039,0.00109010,0.00045162,-0.03642429,-0.0324107
 2,-0.01655423,0.13346012,0.21433112,-0.00128725,-0.00083840,-0.0021385
 1,-0.00202432,-0.00282891,0.00349051,0.00453701,0.00173894,0.00020661,
 0.00030718,0.00024289,0.00010128,0.00240092,-0.00046402,-0.00097028,-0
 .02533553,-0.02804296,0.01417004,-0.06042005,-0.05813306,0.09892397,0.
 00239425,-0.00482460,-0.00115172,0.00082063,-0.00012001,0.00001232,0.0
 0096500,0.00054378,0.00042040,-0.00426640,0.00401419,0.00090236,-0.000
 28310,0.00122751,0.00000269,0.00106676,0.00128820,0.00091179,0.0020062
 8,0.00288175,-0.00225538,0.19245029,0.00223410,-0.00553504,-0.00058997
 ,0.00163035,-0.00079718,0.00027113,0.00147412,0.00040462,0.00009279,0.
 00220092,-0.00000231,-0.00206287,0.00062230,0.00096766,-0.00008119,0.0
 0318155,0.00333652,0.00293562,0.00157676,-0.00926537,0.00734024,0.1641
 3299,0.30501913,-0.00040484,0.00006649,-0.00109308,-0.00112011,0.00066
 251,0.00033237,0.00002443,0.00026050,0.00083599,0.00324126,-0.00295822
 ,0.00115911,-0.00001949,-0.00068732,0.00052957,0.00033238,-0.00027710,
 0.00205153,-0.00028721,0.00642987,-0.00368112,-0.05879913,-0.07238668,
 0.10171882,0.00257466,0.00001340,0.00082487,-0.00312602,0.00386578,-0.
 00114319,0.00022518,0.00100622,0.00108626,-0.00109765,0.00048544,-0.00
 019139,-0.00104441,0.00062351,0.00045745,0.00257686,-0.00085760,-0.000
 97334,0.00529445,0.00010036,-0.00260391,-0.04855903,-0.01760946,0.0375
 7104,0.26613466,-0.00033483,-0.00218833,-0.00065101,0.00272579,-0.0025
 2720,0.00068728,0.00033917,-0.00031526,-0.00066051,0.00014697,0.000642
 99,-0.00029374,0.00067810,0.00015930,-0.00030243,-0.00081039,0.0021340
 5,0.00356224,0.00414275,0.00006732,-0.00080086,-0.03286776,0.01413952,
 0.01862306,-0.07503251,0.11051508,-0.00076166,0.00060236,-0.00088829,-
 0.00042418,0.00012878,0.00078102,0.00066073,0.00024998,0.00138533,0.00
 101663,-0.00078329,0.00112056,0.00011072,-0.00036491,0.00025553,-0.001
 30052,0.00226413,0.00442596,-0.00344909,0.00144401,0.00193034,0.037733
 13,0.00866303,-0.00971581,-0.13035275,0.05215084,0.16093367,0.00177118
 ,-0.00102924,-0.00043469,-0.00015581,0.00050029,-0.00009527,-0.0019084
 5,0.00358562,0.00014821,-0.00115271,0.00022051,-0.00007049,-0.00043375
 ,0.00051393,0.00032888,-0.00362525,0.00311143,-0.00696913,0.00288289,0
 .00419574,-0.00030883,-0.01361320,-0.03639538,-0.02129954,0.01451507,0
 .01480288,0.03156418,0.11175783,0.00101071,-0.00293979,-0.00087120,0.0
 0029540,0.00022566,0.00081544,0.00547579,-0.00177264,0.00292007,0.0001
 7837,0.00060163,0.00009041,0.00014831,0.00059548,0.00017888,0.00195074
 ,0.00043538,0.00440180,0.00212224,0.00278665,0.00080267,-0.03806330,-0
 .03864816,-0.03531639,0.00746913,-0.00836217,-0.03791985,0.05186191,0.
 14293201,0.00177302,-0.00192018,-0.00197853,-0.00096030,0.00115491,0.0
 0109080,0.00157375,0.00235277,0.00404069,0.00133815,-0.00039964,0.0021
 5772,-0.00027474,0.00022333,0.00082526,-0.00624138,0.00415839,-0.00828
 483,0.00107105,0.00261571,0.00109650,-0.01141536,-0.02024803,0.0105412
 6,0.01613589,-0.03467409,-0.04899704,0.08758577,0.12400350,0.29308784,
 -0.25380662,0.20543139,0.04554729,0.00160527,-0.00109477,0.00064361,0.
 00187083,0.00009656,-0.00022849,0.00355348,-0.00281760,0.00260572,0.00
 282519,-0.00319550,-0.00244485,-0.00549416,-0.00580016,0.00075481,-0.0
 0099433,-0.00225964,0.00003060,-0.00792318,-0.00348974,-0.00198226,-0.
 00123041,-0.00052685,0.00073874,-0.00132055,-0.00172146,-0.00171026,0.
 26594411,0.20576050,-0.33768751,-0.05934680,-0.00130579,-0.00002152,0.
 00042039,-0.00280518,-0.00150850,-0.00046095,-0.00502129,0.00285809,-0
 .00615249,-0.00213197,-0.01073793,-0.00747923,-0.00187469,0.00084898,0
 .00184126,-0.00110334,0.00078663,0.00043786,0.00182475,0.00304096,-0.0
 0019444,-0.00013041,0.00111960,-0.00020964,0.00040002,0.00147958,0.000
 81953,-0.24701680,0.35470052,0.04586438,-0.05710652,-0.09593634,0.0003
 9290,-0.00085733,0.00158984,-0.00147276,-0.00084287,0.00065589,0.00111
 225,-0.00120097,0.00198203,-0.00023208,-0.00657123,-0.00292419,0.00278
 016,0.00273139,0.00198199,0.00007844,0.00072190,0.00083840,-0.00222751
 ,-0.00084081,0.00003662,-0.00076237,0.00007704,0.00070900,0.00001662,-
 0.00009203,0.00059604,-0.05988313,0.05988814,0.08170364,-0.32644274,-0
 .06391175,0.21195531,0.00019849,-0.00123907,0.00150640,-0.00366142,-0.
 00374991,-0.00091847,0.00030186,0.00061619,-0.00348227,0.00450609,-0.0
 0481340,-0.00447920,-0.00106419,-0.00055401,0.00008764,-0.00150385,-0.
 00073765,0.00059373,-0.00089670,-0.00032143,-0.00013969,-0.00109889,0.
 00038022,0.00021100,-0.00066327,-0.00011749,-0.00060864,-0.01429018,0.
 00127108,0.02521143,0.34291257,-0.06297578,-0.10015271,0.05602006,-0.0
 0044232,-0.00018875,0.00064421,-0.00309596,-0.00207378,-0.00038769,-0.
 00177553,0.00165185,-0.00469407,-0.00222878,0.00206998,0.00175854,0.00
 051373,0.00137971,0.00053602,-0.00061828,0.00046923,0.00037136,0.00064
 592,0.00112607,-0.00003511,-0.00025945,0.00055900,-0.00003822,0.000094
 32,0.00061647,0.00030363,0.02796127,0.01312317,-0.01683510,0.06703818,
 0.08194628,0.21207137,0.05652388,-0.26838082,0.00108743,-0.00026890,0.
 00192968,-0.00026820,0.00018632,0.00122285,0.00099813,-0.00124510,0.00
 753332,-0.00349801,0.00198427,0.00375437,0.00122873,0.00098664,0.00119
 648,0.00048083,0.00057246,0.00022653,0.00086194,0.00023613,0.00052643,
 0.00029757,-0.00003556,0.00016160,0.00044680,0.00027663,0.00083665,0.0
 1350052,0.00452009,0.00457634,-0.24918462,-0.06926281,0.27714674,-0.11
 510333,0.05922301,-0.09448931,-0.00246064,-0.00261924,-0.00047713,-0.0
 0055642,-0.00087570,-0.00065109,-0.00459684,-0.00210574,-0.00761406,0.
 00194491,-0.00587419,-0.00232790,-0.00076544,-0.00017788,-0.00063323,-
 0.00091240,-0.00060341,0.00027991,-0.00056588,-0.00034408,0.00010543,-
 0.00073902,0.00021730,0.00019063,-0.00047534,-0.00011321,-0.00038645,0
 .00302105,0.02313434,-0.01858224,0.01409139,-0.01278989,0.02834509,0.0
 9769123,0.05949219,-0.20646859,0.18636988,-0.00536059,0.00000077,-0.00
 369355,-0.00028710,0.00062835,-0.00127255,-0.00263549,0.00160999,-0.00
 507495,-0.00186525,0.00548880,0.00086219,-0.00001547,0.00101337,-0.000
 12963,0.00006397,0.00088060,-0.00028514,0.00159357,0.00181951,-0.00032
 016,0.00024803,0.00056619,-0.00039612,0.00034941,0.00080336,0.00029813
 ,0.01724677,-0.00980494,0.02926398,0.00494212,0.00791136,0.01377259,-0
 .07611144,0.20388751,-0.09328678,0.18640322,-0.37049532,0.00129922,-0.
 00215139,0.00453710,-0.00221226,-0.00202574,0.00122638,-0.00767331,-0.
 00302926,-0.00809284,0.00115014,-0.00516748,-0.00036807,0.00062536,0.0
 0052520,0.00240353,-0.00070862,-0.00005142,0.00103903,-0.00084853,-0.0
 0065521,0.00052143,-0.00082695,0.00016263,0.00065020,-0.00019765,-0.00
 005172,0.00062253,0.00318917,0.00214836,0.01100564,-0.00209645,0.02222
 394,-0.01781249,0.10202823,-0.22289632,0.39570616,-0.00848250,-0.01855
 716,0.00279838,-0.09152604,0.03925981,-0.03787009,-0.09569370,-0.04300
 352,-0.04006171,0.00750125,0.00641209,-0.02168137,-0.04017345,0.008013
 83,0.01909035,0.01088598,-0.00872888,-0.01926711,-0.04273699,-0.003690
 32,0.01853783,-0.00116709,-0.00298180,0.00070122,0.00318275,-0.0029133
 0,-0.00067415,0.00116594,-0.00297099,-0.00004361,-0.00273146,0.0040644
 4,0.00053179,0.00226810,0.00236622,-0.00171997,0.00297891,0.00462635,0
 .00113091,0.52872634,-0.01915386,-0.00227068,-0.00225622,0.04754501,-0
 .16694927,0.10679398,-0.05027688,-0.15389970,-0.08464733,-0.00715921,-
 0.01153163,0.01500705,0.03735533,-0.01090475,-0.02389307,0.00618471,-0
 .00846912,-0.01128581,-0.03580926,-0.00655867,0.01756521,-0.00208548,0
 .00137115,-0.00106075,-0.00262448,0.00095950,-0.00020209,-0.00201830,-
 0.00202048,-0.00311582,0.00426274,0.00152692,0.00121671,0.00184395,-0.
 00037321,-0.00011647,0.00218533,-0.00321293,0.00306978,-0.00284517,0.5
 3832275,-0.00055764,0.00234112,0.03283543,-0.04217910,0.09692683,-0.16
 783729,-0.03922565,-0.07841269,-0.13583433,0.00997311,0.02589635,-0.03
 549586,0.02373701,-0.00399493,-0.01272432,0.01196418,-0.02375112,-0.02
 719865,0.02193885,-0.00030719,-0.01088715,0.00088792,0.00093166,-0.003
 02361,-0.00730822,0.00545091,-0.00301281,0.00006905,-0.00392850,-0.006
 45416,0.00226063,-0.00253927,-0.00492259,-0.00721609,-0.00503372,-0.00
 397324,0.00200528,0.00679163,-0.00935787,-0.03000359,-0.02364946,0.505
 08746,-0.06498770,-0.03810114,-0.00915394,0.00908624,0.01900963,-0.013
 08963,-0.02692761,-0.02098639,-0.00423257,-0.08360107,0.01909710,-0.04
 780310,-0.12380963,0.07906954,0.04759643,0.00008765,-0.00034926,-0.001
 64569,0.00197891,0.00141642,-0.00145232,0.00118261,-0.00017696,-0.0006
 1698,0.00192894,-0.00086033,-0.00066325,0.00082747,-0.00013730,-0.0001
 8970,0.00003709,0.02493222,0.00664035,-0.02004386,-0.01441571,-0.00190
 208,0.00256783,-0.00015011,-0.00388288,-0.13475599,-0.06254991,0.02855
 592,0.45221440,-0.05137659,-0.07087375,-0.02563661,-0.00770095,-0.0164
 5114,0.02115490,-0.03345937,-0.02852634,-0.00436850,0.01832564,-0.0902
 7654,0.06639899,0.07604382,-0.17012117,-0.06147829,-0.00118169,-0.0022
 5533,-0.00085498,0.00829494,-0.00078069,-0.00345455,-0.00250435,-0.002
 75257,0.00249360,-0.00063631,-0.00095738,0.00155447,-0.00054051,-0.000
 72517,0.00141192,0.00034702,-0.01071841,-0.00778830,-0.00146371,-0.003
 25898,-0.00547231,0.01559171,0.00013916,0.02256079,-0.03038808,-0.0822
 1193,-0.00348703,-0.00325790,0.45633568,-0.04003588,-0.05023613,-0.069
 63613,0.01035608,0.01992875,-0.01896657,-0.02784994,-0.02597290,-0.007
 92768,-0.05739075,0.06725199,-0.21777035,0.04963795,-0.06990349,-0.101
 60598,-0.00209833,0.00096303,0.00044919,-0.00381402,-0.00049096,0.0009
 1399,0.00188956,0.00100916,-0.00285563,0.00018863,0.00068557,-0.001522
 90,0.00005079,0.00014831,-0.00273266,-0.00590251,0.00715138,0.00426615
 ,0.02828712,0.01561569,-0.00578959,-0.00845365,-0.00406905,-0.00618113
 ,0.05667974,0.03644134,-0.07051717,-0.01000855,0.00630117,0.49145844,-
 0.00764744,-0.00059517,0.00159706,-0.01935450,0.01851212,-0.00599958,0
 .00501146,-0.02234332,-0.01285546,0.00014846,0.00027086,-0.00198027,0.
 00032825,-0.00173977,-0.00091372,-0.08802297,-0.01897733,-0.05000630,-
 0.14653179,-0.07396117,0.04377880,0.00530791,-0.03070642,0.01379299,-0
 .03856931,0.02869460,-0.00183912,-0.00211368,0.00062844,-0.01231653,0.
 00324234,0.00145509,-0.00073116,0.00263280,0.00050273,-0.00163281,0.00
 203706,-0.00007132,0.00019381,-0.13366675,0.06676496,0.03407893,-0.010
 48633,0.00871257,0.01061412,0.52334336,-0.00511158,0.00984670,0.008014
 73,0.03055846,-0.03061578,0.00740399,0.00419192,-0.02134861,-0.0235625
 4,0.00127516,-0.00242562,0.00089213,-0.00769476,-0.00075771,0.00374561
 ,-0.02030646,-0.11373481,-0.08452650,-0.07380750,-0.14772943,0.0483045
 9,-0.00081730,-0.02305677,0.01699883,0.01724477,-0.01242984,0.00302505
 ,-0.02001906,0.00485821,-0.02667827,0.00630682,-0.00327506,-0.00273516
 ,0.00063573,-0.00227642,-0.00207519,0.00105046,-0.00181040,-0.00185563
 ,0.03492873,-0.08822965,0.00132606,-0.00420083,0.01843081,-0.00166955,
 -0.03663663,0.52849417,-0.00065074,0.00557075,0.00897063,-0.02899164,0
 .03342961,-0.01013235,0.00731540,-0.02409907,-0.01996193,-0.00298631,-
 0.00066244,0.00007723,-0.00253071,0.00052798,0.00069600,-0.06004257,-0
 .09330872,-0.25321154,0.05433961,0.05700085,-0.09801072,-0.00185491,0.
 00131343,0.00253097,0.03002096,-0.01943157,-0.00044458,-0.01795927,0.0
 0468941,-0.02287354,0.00308676,-0.00138516,-0.00426179,-0.00024528,-0.
 00143184,-0.00191291,0.00052014,-0.00027700,-0.00362351,0.05028441,-0.
 03324832,-0.07500242,0.01043982,-0.00193064,0.00014068,0.01111072,0.00
 610977,0.57897512,-0.00809794,0.00513140,-0.00083385,-0.00155857,-0.00
 073685,0.00107613,-0.00159607,-0.00249267,-0.00148563,0.00335806,-0.00
 286584,0.00158380,0.00192070,-0.00273246,-0.00091108,-0.00602740,-0.00
 002928,-0.00995701,-0.00886117,-0.03486664,0.02522161,-0.12891914,-0.0
 8502782,0.02890050,-0.20096783,0.06121817,0.06723896,-0.10745836,-0.02
 801729,-0.07533065,0.00569152,-0.00145296,0.00126293,0.00275380,-0.000
 52065,-0.00111271,0.00184292,-0.00206564,0.00211659,-0.00577528,0.0183
 8051,-0.00898058,-0.00529895,0.00519378,-0.00215035,-0.09565887,0.0724
 0206,-0.05185639,0.55465258,-0.00331901,0.01189132,0.00206386,-0.00372
 052,0.00278114,-0.00207783,-0.00500825,0.00045643,-0.00092585,0.000559
 06,-0.00366569,0.00092267,-0.00147679,-0.00199096,0.00032117,-0.014447
 51,0.00378195,-0.03127556,-0.00488133,-0.02988188,0.01804412,-0.096869
 85,-0.25116773,0.06770132,0.06609358,-0.10408237,-0.03016853,-0.019633
 56,-0.10086602,-0.05030579,0.00626997,-0.00573057,0.00097116,0.0001809
 2,-0.00252926,-0.00058268,0.00021265,-0.00345212,0.00079025,0.01640778
 ,-0.00554830,0.00543934,0.00166094,0.00500376,-0.00315431,0.05948976,-
 0.11393981,0.06713294,-0.00151782,0.59894012,-0.00059731,-0.00107130,0
 .00301900,0.00764309,-0.00745992,-0.00120512,-0.00432706,-0.00229075,-
 0.00810886,-0.00403939,0.00315296,-0.00603867,0.00076994,0.00099608,-0
 .00202811,-0.02124658,0.00522121,-0.03520564,0.00040941,0.01187279,-0.
 00724940,0.03493043,0.07407157,-0.10041484,0.05757946,-0.02454978,-0.1
 0777179,-0.07287543,-0.06014743,-0.22357452,-0.00020635,0.00054096,-0.
 00189666,0.00051807,0.00024513,-0.00124193,0.00014037,0.00105606,-0.00
 178078,0.00156697,0.00338126,0.02831858,0.00140816,-0.00740464,0.00827
 734,-0.02689148,0.04728209,-0.10195534,0.02521772,-0.04489629,0.558856
 76\\0.00000031,-0.00000011,0.00000010,-0.00000010,0.00000017,-0.000000
 33,-0.00000010,0.00000002,0.00000010,0.00000020,-0.00000012,0.00000034
 ,0.00000027,-0.00000028,-0.00000013,0.00000001,0.00000008,0.00000013,-
 0.00000023,-0.00000014,0.00000021,-0.00000003,-0.00000014,0.,0.0000001
 0,-0.00000008,-0.00000004,-0.00000018,-0.00000020,-0.00000039,-0.00000
 004,-0.00000006,0.00000011,-0.00000014,-0.00000013,0.00000010,-0.00000
 014,0.00000029,-0.00000025,0.00000013,-0.00000038,0.00000030,-0.000000
 12,0.00000059,-0.00000035,-0.00000010,0.00000023,-0.00000044,0.0000001
 6,0.00000027,0.00000054\\\@
 The archive entry for this job was punched.


 Any fool can criticize, condemn, and complain -- and most do.
 -- Dale Carnegie
 Job cpu time:       0 days  6 hours 50 minutes  5.6 seconds.
 Elapsed time:       0 days  1 hours 16 minutes 23.8 seconds.
 File lengths (MBytes):  RWF=  92877 Int=      0 D2E=      0 Chk=     10 Scr=      1
 Normal termination of Gaussian 16 at Thu Sep 24 07:31:06 2026.
