%Chk=/home/ls/projects/PFAS_mito_membrane_pilot/qm/PFBS/phase3_torsion_20260924/phase3_torsion_20run_20260925_v8/T_CC_150/T_CC_150.chk
%NProcShared=8
%Mem=24GB
#P MP2/6-31+G(d) Opt=(Tight,ModRedundant,MaxCycles=200) IOp(1/152=200) SCF=Tight NoSymm

PFBS_ani Phase3 T_CC_150; independent GEO_A seed; not run

-1 1
S -2.0618770883  1.2473175722  2.0643936487
F -0.4114461799  1.8946117712 -1.0224167803
F  0.6197603718  1.9030961332  0.9267991218
F -2.0475557112  0.0967237690 -0.3469051141
F -0.6497969263 -0.7941206487  1.1158154699
F  0.7841864831 -0.3805389614 -1.7480710689
F  2.1332732760  1.2095635708 -1.0393354488
F  1.2723790062 -1.7849210804  0.5977137453
F  3.0613205218 -1.1566160715 -0.4726166233
F  2.4580202382 -0.1080781951  1.3488697600
O -2.6866905955  2.3959464859  1.3659785127
O -2.9861032873  0.1795288547  2.5055968263
O -0.9549338785  1.5806335087  2.9906385057
C  0.0395680856  1.0911289971 -0.0227209475
C -1.1599343060  0.3946115631  0.6608036265
C  1.2046440458  0.2731529814 -0.6450266101
C  1.9907496531 -0.7238767480  0.2406475468

D 16 14 15 1 F

